POSCAR                                  
   1.00000000000000     
     9.2842500000000001    0.0000000000000000    0.0000000000000000
     0.0000000000000000   10.7205300000000001    0.0000000000000000
     0.0000000000000000    0.0000000000000000   19.4957999999999991
   C    F    Si   K 
    48     1    48     1
Selective dynamics
Direct
  0.0000000000000000  0.0000000000000000  0.0000000000000000   F   F   F
  0.1666669999999968  0.2500000000000000  0.0000000000000000   F   F   F
  0.0000000000000000  0.0000000000000000  0.3894450000000020   F   F   F
  0.1666669999999968  0.2500000000000000  0.3894450000000020   F   F   F
  0.0000000000000000  0.1666659999999993  0.1301800000000028   F   F   F
  0.1666669999999968  0.4166659999999993  0.1301800000000028   F   F   F
  0.0000000000000000  0.3333340000000007  0.2598520000000022   F   F   F
  0.1666669999999968  0.0833330000000032  0.2598520000000022   F   F   F
  0.3333330000000032  0.0000000000000000  0.0000000000000000   F   F   F
  0.5000000000000000  0.2500000000000000  0.0000000000000000   F   F   F
  0.3333330000000032  0.0000000000000000  0.3894450000000020   F   F   F
  0.5000000000000000  0.2500000000000000  0.3894450000000020   F   F   F
  0.3333330000000032  0.1666659999999993  0.1301800000000028   F   F   F
  0.5000000000000000  0.4166659999999993  0.1301800000000028   F   F   F
  0.3333330000000032  0.3333340000000007  0.2598520000000022   F   F   F
  0.5000000000000000  0.0833330000000032  0.2598520000000022   F   F   F
  0.6666669999999968  0.0000000000000000  0.0000000000000000   F   F   F
  0.8333330000000032  0.2500000000000000  0.0000000000000000   F   F   F
  0.6666669999999968  0.0000000000000000  0.3894450000000020   F   F   F
  0.8333330000000032  0.2500000000000000  0.3894450000000020   F   F   F
  0.6666669999999968  0.1666659999999993  0.1301800000000028   F   F   F
  0.8333330000000032  0.4166659999999993  0.1301800000000028   F   F   F
  0.6666669999999968  0.3333340000000007  0.2598520000000022   F   F   F
  0.8333330000000032  0.0833340000000007  0.2598520000000022   F   F   F
  0.0000000000000000  0.5000000000000000  0.0000000000000000   F   F   F
  0.1666669999999968  0.7500000000000000  0.0000000000000000   F   F   F
  0.0000000000000000  0.5000000000000000  0.3894450000000020   F   F   F
  0.1666669999999968  0.7500000000000000  0.3894450000000020   F   F   F
  0.0000000000000000  0.6666659999999993  0.1301800000000028   F   F   F
  0.1666669999999968  0.9166659999999993  0.1301800000000028   F   F   F
  0.0000000000000000  0.8333340000000007  0.2598520000000022   F   F   F
  0.1666669999999968  0.5833340000000007  0.2598520000000022   F   F   F
  0.3333330000000032  0.5000000000000000  0.0000000000000000   F   F   F
  0.5000000000000000  0.7500000000000000  0.0000000000000000   F   F   F
  0.3333330000000032  0.5000000000000000  0.3894450000000020   F   F   F
  0.5000000000000000  0.7500000000000000  0.3894450000000020   F   F   F
  0.3333330000000032  0.6666659999999993  0.1301800000000028   F   F   F
  0.5000000000000000  0.9166669999999968  0.1301800000000028   F   F   F
  0.3333330000000032  0.8333340000000007  0.2598520000000022   F   F   F
  0.5000000000000000  0.5833340000000007  0.2598520000000022   F   F   F
  0.6666669999999968  0.5000000000000000  0.0000000000000000   F   F   F
  0.8333330000000032  0.7500000000000000  0.0000000000000000   F   F   F
  0.6666669999999968  0.5000000000000000  0.3894450000000020   F   F   F
  0.8333330000000032  0.7500000000000000  0.3894450000000020   F   F   F
  0.6666669999999968  0.6666659999999993  0.1301800000000028   F   F   F
  0.8333330000000032  0.9166669999999968  0.1301800000000028   F   F   F
  0.6666669999999968  0.8333340000000007  0.2598520000000022   F   F   F
  0.8333330000000032  0.5833340000000007  0.2598520000000022   F   F   F
  0.1709094471277709  0.7344576498368969  0.5503876912090284   T   T   T
  0.0000000000000000  0.0000000000000000  0.0976240000000033   F   F   F
  0.1666669999999968  0.2500000000000000  0.0976240000000033   F   F   F
  0.9750975735246945  0.9897540916101403  0.4865105372976782   T   T   T
  0.1629019885635173  0.2549135132875400  0.4861520013322745   T   T   T
  0.0000000000000000  0.1666659999999993  0.2275319999999965   F   F   F
  0.1666669999999968  0.4166659999999993  0.2275319999999965   F   F   F
  0.0000000000000000  0.3333340000000007  0.3572070000000025   F   F   F
  0.1666669999999968  0.0833330000000032  0.3572070000000025   F   F   F
  0.3333330000000032  0.0000000000000000  0.0976240000000033   F   F   F
  0.5000000000000000  0.2500000000000000  0.0976240000000033   F   F   F
  0.3539839044992650  0.9917906536045757  0.4861019854132853   T   T   T
  0.4914834630112117  0.2515857263970739  0.4868855021974800   T   T   T
  0.3333330000000032  0.1666659999999993  0.2275319999999965   F   F   F
  0.5000000000000000  0.4166659999999993  0.2275319999999965   F   F   F
  0.3333330000000032  0.3333340000000007  0.3572070000000025   F   F   F
  0.5000000000000000  0.0833330000000032  0.3572070000000025   F   F   F
  0.6666669999999968  0.0000000000000000  0.0976240000000033   F   F   F
  0.8333330000000032  0.2500000000000000  0.0976240000000033   F   F   F
  0.6690062099435523  0.9863004071644054  0.4863395657596499   T   T   T
  0.8416170183116188  0.2570290627526558  0.4869009073054372   T   T   T
  0.6666669999999968  0.1666659999999993  0.2275319999999965   F   F   F
  0.8333330000000032  0.4166659999999993  0.2275319999999965   F   F   F
  0.6666669999999968  0.3333340000000007  0.3572070000000025   F   F   F
  0.8333330000000032  0.0833340000000007  0.3572070000000025   F   F   F
  0.0000000000000000  0.5000000000000000  0.0976240000000033   F   F   F
  0.1666669999999968  0.7500000000000000  0.0976240000000033   F   F   F
  0.9913335228011566  0.4752801305185094  0.4863368619568913   T   T   T
  0.1644930454483556  0.8271187261126542  0.4821615761022133   T   T   T
  0.0000000000000000  0.6666659999999993  0.2275319999999965   F   F   F
  0.1666669999999968  0.9166659999999993  0.2275319999999965   F   F   F
  0.0000000000000000  0.8333340000000007  0.3572070000000025   F   F   F
  0.1666669999999968  0.5833340000000007  0.3572070000000025   F   F   F
  0.3333330000000032  0.5000000000000000  0.0976240000000033   F   F   F
  0.5000000000000000  0.7500000000000000  0.0976240000000033   F   F   F
  0.3322293816788872  0.4688950658108487  0.4869324338758502   T   T   T
  0.5233931164736244  0.7656712929042500  0.4869579858090260   T   T   T
  0.3333330000000032  0.6666659999999993  0.2275319999999965   F   F   F
  0.5000000000000000  0.9166669999999968  0.2275319999999965   F   F   F
  0.3333330000000032  0.8333340000000007  0.3572070000000025   F   F   F
  0.5000000000000000  0.5833340000000007  0.3572070000000025   F   F   F
  0.6666669999999968  0.5000000000000000  0.0976240000000033   F   F   F
  0.8333330000000032  0.7500000000000000  0.0976240000000033   F   F   F
  0.6788565655119922  0.5022417013528043  0.4869141201712348   T   T   T
  0.8125235185416314  0.7580979020338480  0.4860461033874149   T   T   T
  0.6666669999999968  0.6666659999999993  0.2275319999999965   F   F   F
  0.8333330000000032  0.9166669999999968  0.2275319999999965   F   F   F
  0.6666669999999968  0.8333340000000007  0.3572070000000025   F   F   F
  0.8333330000000032  0.5833340000000007  0.3572070000000025   F   F   F
  0.3622165371378181  0.6421997283398865  0.6382940047105634   T   T   T
 
  0.00000000E+00  0.00000000E+00  0.00000000E+00
  0.00000000E+00  0.00000000E+00  0.00000000E+00
  0.00000000E+00  0.00000000E+00  0.00000000E+00
  0.00000000E+00  0.00000000E+00  0.00000000E+00
  0.00000000E+00  0.00000000E+00  0.00000000E+00
  0.00000000E+00  0.00000000E+00  0.00000000E+00
  0.00000000E+00  0.00000000E+00  0.00000000E+00
  0.00000000E+00  0.00000000E+00  0.00000000E+00
  0.00000000E+00  0.00000000E+00  0.00000000E+00
  0.00000000E+00  0.00000000E+00  0.00000000E+00
  0.00000000E+00  0.00000000E+00  0.00000000E+00
  0.00000000E+00  0.00000000E+00  0.00000000E+00
  0.00000000E+00  0.00000000E+00  0.00000000E+00
  0.00000000E+00  0.00000000E+00  0.00000000E+00
  0.00000000E+00  0.00000000E+00  0.00000000E+00
  0.00000000E+00  0.00000000E+00  0.00000000E+00
  0.00000000E+00  0.00000000E+00  0.00000000E+00
  0.00000000E+00  0.00000000E+00  0.00000000E+00
  0.00000000E+00  0.00000000E+00  0.00000000E+00
  0.00000000E+00  0.00000000E+00  0.00000000E+00
  0.00000000E+00  0.00000000E+00  0.00000000E+00
  0.00000000E+00  0.00000000E+00  0.00000000E+00
  0.00000000E+00  0.00000000E+00  0.00000000E+00
  0.00000000E+00  0.00000000E+00  0.00000000E+00
  0.00000000E+00  0.00000000E+00  0.00000000E+00
  0.00000000E+00  0.00000000E+00  0.00000000E+00
  0.00000000E+00  0.00000000E+00  0.00000000E+00
  0.00000000E+00  0.00000000E+00  0.00000000E+00
  0.00000000E+00  0.00000000E+00  0.00000000E+00
  0.00000000E+00  0.00000000E+00  0.00000000E+00
  0.00000000E+00  0.00000000E+00  0.00000000E+00
  0.00000000E+00  0.00000000E+00  0.00000000E+00
  0.00000000E+00  0.00000000E+00  0.00000000E+00
  0.00000000E+00  0.00000000E+00  0.00000000E+00
  0.00000000E+00  0.00000000E+00  0.00000000E+00
  0.00000000E+00  0.00000000E+00  0.00000000E+00
  0.00000000E+00  0.00000000E+00  0.00000000E+00
  0.00000000E+00  0.00000000E+00  0.00000000E+00
  0.00000000E+00  0.00000000E+00  0.00000000E+00
  0.00000000E+00  0.00000000E+00  0.00000000E+00
  0.00000000E+00  0.00000000E+00  0.00000000E+00
  0.00000000E+00  0.00000000E+00  0.00000000E+00
  0.00000000E+00  0.00000000E+00  0.00000000E+00
  0.00000000E+00  0.00000000E+00  0.00000000E+00
  0.00000000E+00  0.00000000E+00  0.00000000E+00
  0.00000000E+00  0.00000000E+00  0.00000000E+00
  0.00000000E+00  0.00000000E+00  0.00000000E+00
  0.00000000E+00  0.00000000E+00  0.00000000E+00
  0.00000000E+00  0.00000000E+00  0.00000000E+00
  0.00000000E+00  0.00000000E+00  0.00000000E+00
  0.00000000E+00  0.00000000E+00  0.00000000E+00
  0.00000000E+00  0.00000000E+00  0.00000000E+00
  0.00000000E+00  0.00000000E+00  0.00000000E+00
  0.00000000E+00  0.00000000E+00  0.00000000E+00
  0.00000000E+00  0.00000000E+00  0.00000000E+00
  0.00000000E+00  0.00000000E+00  0.00000000E+00
  0.00000000E+00  0.00000000E+00  0.00000000E+00
  0.00000000E+00  0.00000000E+00  0.00000000E+00
  0.00000000E+00  0.00000000E+00  0.00000000E+00
  0.00000000E+00  0.00000000E+00  0.00000000E+00
  0.00000000E+00  0.00000000E+00  0.00000000E+00
  0.00000000E+00  0.00000000E+00  0.00000000E+00
  0.00000000E+00  0.00000000E+00  0.00000000E+00
  0.00000000E+00  0.00000000E+00  0.00000000E+00
  0.00000000E+00  0.00000000E+00  0.00000000E+00
  0.00000000E+00  0.00000000E+00  0.00000000E+00
  0.00000000E+00  0.00000000E+00  0.00000000E+00
  0.00000000E+00  0.00000000E+00  0.00000000E+00
  0.00000000E+00  0.00000000E+00  0.00000000E+00
  0.00000000E+00  0.00000000E+00  0.00000000E+00
  0.00000000E+00  0.00000000E+00  0.00000000E+00
  0.00000000E+00  0.00000000E+00  0.00000000E+00
  0.00000000E+00  0.00000000E+00  0.00000000E+00
  0.00000000E+00  0.00000000E+00  0.00000000E+00
  0.00000000E+00  0.00000000E+00  0.00000000E+00
  0.00000000E+00  0.00000000E+00  0.00000000E+00
  0.00000000E+00  0.00000000E+00  0.00000000E+00
  0.00000000E+00  0.00000000E+00  0.00000000E+00
  0.00000000E+00  0.00000000E+00  0.00000000E+00
  0.00000000E+00  0.00000000E+00  0.00000000E+00
  0.00000000E+00  0.00000000E+00  0.00000000E+00
  0.00000000E+00  0.00000000E+00  0.00000000E+00
  0.00000000E+00  0.00000000E+00  0.00000000E+00
  0.00000000E+00  0.00000000E+00  0.00000000E+00
  0.00000000E+00  0.00000000E+00  0.00000000E+00
  0.00000000E+00  0.00000000E+00  0.00000000E+00
  0.00000000E+00  0.00000000E+00  0.00000000E+00
  0.00000000E+00  0.00000000E+00  0.00000000E+00
  0.00000000E+00  0.00000000E+00  0.00000000E+00
  0.00000000E+00  0.00000000E+00  0.00000000E+00
  0.00000000E+00  0.00000000E+00  0.00000000E+00
  0.00000000E+00  0.00000000E+00  0.00000000E+00
  0.00000000E+00  0.00000000E+00  0.00000000E+00
  0.00000000E+00  0.00000000E+00  0.00000000E+00
  0.00000000E+00  0.00000000E+00  0.00000000E+00
  0.00000000E+00  0.00000000E+00  0.00000000E+00
  0.00000000E+00  0.00000000E+00  0.00000000E+00
  0.00000000E+00  0.00000000E+00  0.00000000E+00
