SCAR 
1.0 
9.614902 0.000000 0.000000 
0.000000 8.326749 0.000000 
0.000000 0.000000 21.560587 
O F Al K 
36 1 28 1 
Selective Dynamics
Direct 
0.173456 0.986420 0.062152 F F F 
0.423456 0.486420 0.062152 F F F 
0.096913 0.500000 0.163581 F F F 
0.346913 0.000000 0.163581 F F F 
0.153088 0.333333 0.062152 F F F 
0.403088 0.833333 0.062152 F F F 
0.173456 0.680245 0.062152 F F F 
0.423456 0.180246 0.062152 F F F 
0.076544 0.153087 0.163581 F F F 
0.326544 0.653087 0.163581 F F F 
0.076544 0.846912 0.163581 F F F 
0.326544 0.346912 0.163581 F F F 
0.173456 0.319755 0.265009 F F F 
0.423456 0.819755 0.265009 F F F 
0.153087 0.666667 0.265009 F F F 
0.403088 0.166667 0.265009 F F F 
0.173456 0.013580 0.265009 F F F 
0.423456 0.513579 0.265009 F F F 
0.673456 0.986420 0.062152 F F F 
0.923456 0.486420 0.062152 F F F 
0.596913 0.500000 0.163581 F F F 
0.846913 0.000000 0.163581 F F F 
0.653088 0.333333 0.062152 F F F 
0.903088 0.833333 0.062152 F F F 
0.673456 0.680245 0.062152 F F F 
0.923456 0.180245 0.062152 F F F 
0.576544 0.153087 0.163581 F F F 
0.826544 0.653087 0.163581 F F F 
0.576544 0.846912 0.163581 F F F 
0.826544 0.346912 0.163581 F F F 
0.673456 0.319755 0.265009 F F F 
0.923456 0.819755 0.265009 F F F 
0.653087 0.666667 0.265009 F F F 
0.903088 0.166667 0.265009 F F F 
0.673456 0.013579 0.265009 F F F 
0.923456 0.513580 0.265009 F F F 
0.480645 0.339487 0.351852 T T T 
0.000000 0.666667 0.202858 F F F 
0.250000 0.166667 0.202858 F F F 
0.000000 0.333333 0.124303 F F F 
0.250000 0.833333 0.124303 F F F 
0.000000 0.000000 0.101429 F F F 
0.250000 0.500000 0.101429 F F F 
0.000000 0.666667 0.022875 F F F 
0.250000 0.166667 0.022875 F F F 
-0.000003 0.333347 0.275816 T T T 
0.249997 0.833347 0.275816 T T T 
0.000000 0.000000 0.225732 F F F 
0.250000 0.500000 0.225732 F F F 
0.000000 0.333333 0.000000 F F F 
0.250000 0.833333 0.000000 F F F 
0.500000 0.666667 0.202858 F F F 
0.750000 0.166667 0.202858 F F F 
0.500000 0.333333 0.124303 F F F 
0.750000 0.833333 0.124303 F F F 
0.500000 0.000000 0.101429 F F F 
0.750000 0.500000 0.101429 F F F 
0.500000 0.666667 0.022875 F F F 
0.750000 0.166667 0.022875 F F F 
0.499997 0.333347 0.275816 T T T 
0.749997 0.833347 0.275816 T T T 
0.500000 0.000000 0.225732 F F F 
0.750000 0.500000 0.225732 F F F 
0.500000 0.333333 0.000000 F F F 
0.750000 0.833333 0.000000 F F F 
0.232421 0.330290 0.403726 T T T 


