SCAR                                    
   1.00000000000000     
     9.6149020000000007    0.0000000000000000    0.0000000000000000
     0.0000000000000000    8.3267489999999995    0.0000000000000000
     0.0000000000000000    0.0000000000000000   21.5605890000000002
   O    F    Al   K 
    48     1    24     1
Selective dynamics
Direct
  0.1734560000000016  0.9864210000000000  0.0000000000000000   F   F   F
  0.4234560000000016  0.4864210000000000  0.0000000000000000   F   F   F
  0.0969120000000032  0.5000000000000000  0.1014290000000031   F   F   F
  0.3469130000000007  0.0000000000000000  0.1014290000000031   F   F   F
  0.1530879999999968  0.3333330000000032  0.0000000000000000   F   F   F
  0.4030879999999968  0.8333330000000032  0.0000000000000000   F   F   F
  0.1734560000000016  0.6802459999999968  0.0000000000000000   F   F   F
  0.4234560000000016  0.1802449999999993  0.0000000000000000   F   F   F
  0.0765439999999984  0.1530869999999993  0.1014290000000031   F   F   F
  0.3265439999999984  0.6530869999999993  0.1014290000000031   F   F   F
  0.0765439999999984  0.8469130000000007  0.1014290000000031   F   F   F
  0.3265439999999984  0.3469130000000007  0.1014290000000031   F   F   F
  0.1734560000000016  0.3197550000000007  0.2028579999999991   F   F   F
  0.4234560000000016  0.8197550000000007  0.2028579999999991   F   F   F
  0.1118304502384302  0.8351120806022121  0.3051050350938719   T   T   T
  0.3714548883948369  0.2896201553095600  0.3030309257610085   T   T   T
  0.1530869999999993  0.6666669999999968  0.2028579999999991   F   F   F
  0.4030879999999968  0.1666669999999968  0.2028579999999991   F   F   F
  0.1734560000000016  0.0135799999999975  0.2028579999999991   F   F   F
  0.4234560000000016  0.5135799999999975  0.2028579999999991   F   F   F
  0.0649125005316386  0.4830706476464462  0.3006114474706596   T   T   T
  0.0454295959908171  0.9815458321943661  0.3243792972859973   T   T   T
  0.1505139251431164  0.0962283758405860  0.3304852840650386   T   T   T
  0.3426199657527966  0.7218511796677668  0.3024379464542682   T   T   T
  0.6734560000000016  0.9864210000000000  0.0000000000000000   F   F   F
  0.9234560000000016  0.4864210000000000  0.0000000000000000   F   F   F
  0.5969130000000007  0.5000000000000000  0.1014290000000031   F   F   F
  0.8469130000000007  0.0000000000000000  0.1014290000000031   F   F   F
  0.6530879999999968  0.3333330000000032  0.0000000000000000   F   F   F
  0.9030879999999968  0.8333330000000032  0.0000000000000000   F   F   F
  0.6734560000000016  0.6802449999999993  0.0000000000000000   F   F   F
  0.9234560000000016  0.1802449999999993  0.0000000000000000   F   F   F
  0.5765439999999984  0.1530869999999993  0.1014290000000031   F   F   F
  0.8265439999999984  0.6530869999999993  0.1014290000000031   F   F   F
  0.5765439999999984  0.8469130000000007  0.1014290000000031   F   F   F
  0.8265439999999984  0.3469130000000007  0.1014290000000031   F   F   F
  0.6734560000000016  0.3197550000000007  0.2028579999999991   F   F   F
  0.9234560000000016  0.8197550000000007  0.2028579999999991   F   F   F
  0.6084984745728631  0.8381279969125872  0.3043764075456833   T   T   T
  0.8870020432427411  0.2610716414141606  0.3046558526509387   T   T   T
  0.6530879999999968  0.6666669999999968  0.2028579999999991   F   F   F
  0.9030879999999968  0.1666669999999968  0.2028579999999991   F   F   F
  0.6734560000000016  0.0135799999999975  0.2028579999999991   F   F   F
  0.9234560000000016  0.5135790000000000  0.2028579999999991   F   F   F
  0.5948792826264807  0.4899800694205459  0.2993340038792118   T   T   T
  0.5325185033327496  0.9835233830848441  0.3188333902073165   T   T   T
  0.6273321168248175  0.1102647997803805  0.3249261221715917   T   T   T
  0.8484484633464482  0.7471650208259404  0.3029104287602458   T   T   T
  0.5590178643032537  0.4761148096076199  0.3651298954562591   T   T   T
  0.0000000000000000  0.6666669999999968  0.1407060000000016   F   F   F
  0.2500000000000000  0.1666669999999968  0.1407060000000016   F   F   F
  0.0000000000000000  0.3333330000000032  0.0621519999999975   F   F   F
  0.2500000000000000  0.8333330000000032  0.0621519999999975   F   F   F
  0.0000000000000000  0.0000000000000000  0.0392769999999985   F   F   F
  0.2500000000000000  0.5000000000000000  0.0392769999999985   F   F   F
  0.0000000000000000  0.6666669999999968  0.2650089999999992   F   F   F
  0.2500000000000000  0.1666669999999968  0.2650089999999992   F   F   F
  0.0000000000000000  0.3333330000000032  0.2421340000000001   F   F   F
  0.2500000000000000  0.8333330000000032  0.2421340000000001   F   F   F
  0.0000000000000000  0.0000000000000000  0.1635810000000006   F   F   F
  0.2500000000000000  0.5000000000000000  0.1635810000000006   F   F   F
  0.5000000000000000  0.6666669999999968  0.1407060000000016   F   F   F
  0.7500000000000000  0.1666669999999968  0.1407060000000016   F   F   F
  0.5000000000000000  0.3333330000000032  0.0621519999999975   F   F   F
  0.7500000000000000  0.8333330000000032  0.0621519999999975   F   F   F
  0.5000000000000000  0.0000000000000000  0.0392769999999985   F   F   F
  0.7500000000000000  0.5000000000000000  0.0392769999999985   F   F   F
  0.5000000000000000  0.6666669999999968  0.2650089999999992   F   F   F
  0.7500000000000000  0.1666669999999968  0.2650089999999992   F   F   F
  0.5000000000000000  0.3333330000000032  0.2421340000000001   F   F   F
  0.7500000000000000  0.8333330000000032  0.2421340000000001   F   F   F
  0.5000000000000000  0.0000000000000000  0.1635810000000006   F   F   F
  0.7500000000000000  0.5000000000000000  0.1635810000000006   F   F   F
  0.2620282937604315  0.4942802719034224  0.3856951797003267   T   T   T
 
  0.00000000E+00  0.00000000E+00  0.00000000E+00
  0.00000000E+00  0.00000000E+00  0.00000000E+00
  0.00000000E+00  0.00000000E+00  0.00000000E+00
  0.00000000E+00  0.00000000E+00  0.00000000E+00
  0.00000000E+00  0.00000000E+00  0.00000000E+00
  0.00000000E+00  0.00000000E+00  0.00000000E+00
  0.00000000E+00  0.00000000E+00  0.00000000E+00
  0.00000000E+00  0.00000000E+00  0.00000000E+00
  0.00000000E+00  0.00000000E+00  0.00000000E+00
  0.00000000E+00  0.00000000E+00  0.00000000E+00
  0.00000000E+00  0.00000000E+00  0.00000000E+00
  0.00000000E+00  0.00000000E+00  0.00000000E+00
  0.00000000E+00  0.00000000E+00  0.00000000E+00
  0.00000000E+00  0.00000000E+00  0.00000000E+00
  0.00000000E+00  0.00000000E+00  0.00000000E+00
  0.00000000E+00  0.00000000E+00  0.00000000E+00
  0.00000000E+00  0.00000000E+00  0.00000000E+00
  0.00000000E+00  0.00000000E+00  0.00000000E+00
  0.00000000E+00  0.00000000E+00  0.00000000E+00
  0.00000000E+00  0.00000000E+00  0.00000000E+00
  0.00000000E+00  0.00000000E+00  0.00000000E+00
  0.00000000E+00  0.00000000E+00  0.00000000E+00
  0.00000000E+00  0.00000000E+00  0.00000000E+00
  0.00000000E+00  0.00000000E+00  0.00000000E+00
  0.00000000E+00  0.00000000E+00  0.00000000E+00
  0.00000000E+00  0.00000000E+00  0.00000000E+00
  0.00000000E+00  0.00000000E+00  0.00000000E+00
  0.00000000E+00  0.00000000E+00  0.00000000E+00
  0.00000000E+00  0.00000000E+00  0.00000000E+00
  0.00000000E+00  0.00000000E+00  0.00000000E+00
  0.00000000E+00  0.00000000E+00  0.00000000E+00
  0.00000000E+00  0.00000000E+00  0.00000000E+00
  0.00000000E+00  0.00000000E+00  0.00000000E+00
  0.00000000E+00  0.00000000E+00  0.00000000E+00
  0.00000000E+00  0.00000000E+00  0.00000000E+00
  0.00000000E+00  0.00000000E+00  0.00000000E+00
  0.00000000E+00  0.00000000E+00  0.00000000E+00
  0.00000000E+00  0.00000000E+00  0.00000000E+00
  0.00000000E+00  0.00000000E+00  0.00000000E+00
  0.00000000E+00  0.00000000E+00  0.00000000E+00
  0.00000000E+00  0.00000000E+00  0.00000000E+00
  0.00000000E+00  0.00000000E+00  0.00000000E+00
  0.00000000E+00  0.00000000E+00  0.00000000E+00
  0.00000000E+00  0.00000000E+00  0.00000000E+00
  0.00000000E+00  0.00000000E+00  0.00000000E+00
  0.00000000E+00  0.00000000E+00  0.00000000E+00
  0.00000000E+00  0.00000000E+00  0.00000000E+00
  0.00000000E+00  0.00000000E+00  0.00000000E+00
  0.00000000E+00  0.00000000E+00  0.00000000E+00
  0.00000000E+00  0.00000000E+00  0.00000000E+00
  0.00000000E+00  0.00000000E+00  0.00000000E+00
  0.00000000E+00  0.00000000E+00  0.00000000E+00
  0.00000000E+00  0.00000000E+00  0.00000000E+00
  0.00000000E+00  0.00000000E+00  0.00000000E+00
  0.00000000E+00  0.00000000E+00  0.00000000E+00
  0.00000000E+00  0.00000000E+00  0.00000000E+00
  0.00000000E+00  0.00000000E+00  0.00000000E+00
  0.00000000E+00  0.00000000E+00  0.00000000E+00
  0.00000000E+00  0.00000000E+00  0.00000000E+00
  0.00000000E+00  0.00000000E+00  0.00000000E+00
  0.00000000E+00  0.00000000E+00  0.00000000E+00
  0.00000000E+00  0.00000000E+00  0.00000000E+00
  0.00000000E+00  0.00000000E+00  0.00000000E+00
  0.00000000E+00  0.00000000E+00  0.00000000E+00
  0.00000000E+00  0.00000000E+00  0.00000000E+00
  0.00000000E+00  0.00000000E+00  0.00000000E+00
  0.00000000E+00  0.00000000E+00  0.00000000E+00
  0.00000000E+00  0.00000000E+00  0.00000000E+00
  0.00000000E+00  0.00000000E+00  0.00000000E+00
  0.00000000E+00  0.00000000E+00  0.00000000E+00
  0.00000000E+00  0.00000000E+00  0.00000000E+00
  0.00000000E+00  0.00000000E+00  0.00000000E+00
  0.00000000E+00  0.00000000E+00  0.00000000E+00
  0.00000000E+00  0.00000000E+00  0.00000000E+00
