SCAR                                    
   1.00000000000000     
     9.6149020000000007    0.0000000000000000    0.0000000000000000
     0.0000000000000000    8.3267489999999995    0.0000000000000000
     0.0000000000000000    0.0000000000000000   21.5605879999999992
   O    Al
    48    24
Selective dynamics
Direct
  0.1734560000000016  0.9864210000000000  0.0000000000000000   F   F   F
  0.4234560000000016  0.4864210000000000  0.0000000000000000   F   F   F
  0.0969120000000032  0.5000000000000000  0.1014290000000031   F   F   F
  0.3469130000000007  0.0000000000000000  0.1014290000000031   F   F   F
  0.1530879999999968  0.3333330000000032  0.0000000000000000   F   F   F
  0.4030879999999968  0.8333330000000032  0.0000000000000000   F   F   F
  0.1734560000000016  0.6802459999999968  0.0000000000000000   F   F   F
  0.4234560000000016  0.1802449999999993  0.0000000000000000   F   F   F
  0.0765439999999984  0.1530869999999993  0.1014290000000031   F   F   F
  0.3265439999999984  0.6530869999999993  0.1014290000000031   F   F   F
  0.0765439999999984  0.8469130000000007  0.1014290000000031   F   F   F
  0.3265439999999984  0.3469130000000007  0.1014290000000031   F   F   F
  0.1734560000000016  0.3197550000000007  0.2028579999999991   F   F   F
  0.4234560000000016  0.8197550000000007  0.2028579999999991   F   F   F
  0.1237635153431412  0.7871563050320473  0.3114722469151320   T   T   T
  0.3737645153431388  0.2871563050320474  0.3114722469151320   T   T   T
  0.1530869999999993  0.6666669999999968  0.2028579999999991   F   F   F
  0.4030879999999968  0.1666669999999968  0.2028579999999991   F   F   F
  0.1734560000000016  0.0135799999999975  0.2028579999999991   F   F   F
  0.4234560000000016  0.5135799999999975  0.2028579999999991   F   F   F
  0.0286671943284449  0.4827509074992006  0.3114933935012382   T   T   T
  0.2786671943284448  0.9827499074992032  0.3114933935012382   T   T   T
  0.0980632354268922  0.2304239754422280  0.3115513553982429   T   T   T
  0.3480632354268921  0.7304249754422255  0.3115513553982429   T   T   T
  0.6734560000000016  0.9864210000000000  0.0000000000000000   F   F   F
  0.9234560000000016  0.4864210000000000  0.0000000000000000   F   F   F
  0.5969130000000007  0.5000000000000000  0.1014290000000031   F   F   F
  0.8469130000000007  0.0000000000000000  0.1014290000000031   F   F   F
  0.6530879999999968  0.3333330000000032  0.0000000000000000   F   F   F
  0.9030879999999968  0.8333330000000032  0.0000000000000000   F   F   F
  0.6734560000000016  0.6802449999999993  0.0000000000000000   F   F   F
  0.9234560000000016  0.1802449999999993  0.0000000000000000   F   F   F
  0.5765439999999984  0.1530869999999993  0.1014290000000031   F   F   F
  0.8265439999999984  0.6530869999999993  0.1014290000000031   F   F   F
  0.5765439999999984  0.8469130000000007  0.1014290000000031   F   F   F
  0.8265439999999984  0.3469130000000007  0.1014290000000031   F   F   F
  0.6734560000000016  0.3197550000000007  0.2028579999999991   F   F   F
  0.9234560000000016  0.8197550000000007  0.2028579999999991   F   F   F
  0.6237645153431389  0.7871563050320473  0.3114722469151320   T   T   T
  0.8737645153431389  0.2871563050320474  0.3114722469151320   T   T   T
  0.6530879999999968  0.6666669999999968  0.2028579999999991   F   F   F
  0.9030879999999968  0.1666669999999968  0.2028579999999991   F   F   F
  0.6734560000000016  0.0135799999999975  0.2028579999999991   F   F   F
  0.9234560000000016  0.5135790000000000  0.2028579999999991   F   F   F
  0.5286671943284449  0.4827499074992031  0.3114933935012382   T   T   T
  0.7786671943284449  0.9827499074992032  0.3114933935012382   T   T   T
  0.5980632354268920  0.2304239754422280  0.3115513553982429   T   T   T
  0.8480632354268920  0.7304249754422255  0.3115513553982429   T   T   T
  0.0000000000000000  0.6666669999999968  0.1407060000000016   F   F   F
  0.2500000000000000  0.1666669999999968  0.1407060000000016   F   F   F
  0.0000000000000000  0.3333330000000032  0.0621519999999975   F   F   F
  0.2500000000000000  0.8333330000000032  0.0621519999999975   F   F   F
  0.0000000000000000  0.0000000000000000  0.0392769999999985   F   F   F
  0.2500000000000000  0.5000000000000000  0.0392769999999985   F   F   F
  0.0000000000000000  0.6666669999999968  0.2650089999999992   F   F   F
  0.2500000000000000  0.1666669999999968  0.2650089999999992   F   F   F
  0.0000000000000000  0.3333330000000032  0.2421340000000001   F   F   F
  0.2500000000000000  0.8333330000000032  0.2421340000000001   F   F   F
  0.0000000000000000  0.0000000000000000  0.1635810000000006   F   F   F
  0.2500000000000000  0.5000000000000000  0.1635810000000006   F   F   F
  0.5000000000000000  0.6666669999999968  0.1407060000000016   F   F   F
  0.7500000000000000  0.1666669999999968  0.1407060000000016   F   F   F
  0.5000000000000000  0.3333330000000032  0.0621519999999975   F   F   F
  0.7500000000000000  0.8333330000000032  0.0621519999999975   F   F   F
  0.5000000000000000  0.0000000000000000  0.0392769999999985   F   F   F
  0.7500000000000000  0.5000000000000000  0.0392769999999985   F   F   F
  0.5000000000000000  0.6666669999999968  0.2650089999999992   F   F   F
  0.7500000000000000  0.1666669999999968  0.2650089999999992   F   F   F
  0.5000000000000000  0.3333330000000032  0.2421340000000001   F   F   F
  0.7500000000000000  0.8333330000000032  0.2421340000000001   F   F   F
  0.5000000000000000  0.0000000000000000  0.1635810000000006   F   F   F
  0.7500000000000000  0.5000000000000000  0.1635810000000006   F   F   F
 
  0.00000000E+00  0.00000000E+00  0.00000000E+00
  0.00000000E+00  0.00000000E+00  0.00000000E+00
  0.00000000E+00  0.00000000E+00  0.00000000E+00
  0.00000000E+00  0.00000000E+00  0.00000000E+00
  0.00000000E+00  0.00000000E+00  0.00000000E+00
  0.00000000E+00  0.00000000E+00  0.00000000E+00
  0.00000000E+00  0.00000000E+00  0.00000000E+00
  0.00000000E+00  0.00000000E+00  0.00000000E+00
  0.00000000E+00  0.00000000E+00  0.00000000E+00
  0.00000000E+00  0.00000000E+00  0.00000000E+00
  0.00000000E+00  0.00000000E+00  0.00000000E+00
  0.00000000E+00  0.00000000E+00  0.00000000E+00
  0.00000000E+00  0.00000000E+00  0.00000000E+00
  0.00000000E+00  0.00000000E+00  0.00000000E+00
  0.00000000E+00  0.00000000E+00  0.00000000E+00
  0.00000000E+00  0.00000000E+00  0.00000000E+00
  0.00000000E+00  0.00000000E+00  0.00000000E+00
  0.00000000E+00  0.00000000E+00  0.00000000E+00
  0.00000000E+00  0.00000000E+00  0.00000000E+00
  0.00000000E+00  0.00000000E+00  0.00000000E+00
  0.00000000E+00  0.00000000E+00  0.00000000E+00
  0.00000000E+00  0.00000000E+00  0.00000000E+00
  0.00000000E+00  0.00000000E+00  0.00000000E+00
  0.00000000E+00  0.00000000E+00  0.00000000E+00
  0.00000000E+00  0.00000000E+00  0.00000000E+00
  0.00000000E+00  0.00000000E+00  0.00000000E+00
  0.00000000E+00  0.00000000E+00  0.00000000E+00
  0.00000000E+00  0.00000000E+00  0.00000000E+00
  0.00000000E+00  0.00000000E+00  0.00000000E+00
  0.00000000E+00  0.00000000E+00  0.00000000E+00
  0.00000000E+00  0.00000000E+00  0.00000000E+00
  0.00000000E+00  0.00000000E+00  0.00000000E+00
  0.00000000E+00  0.00000000E+00  0.00000000E+00
  0.00000000E+00  0.00000000E+00  0.00000000E+00
  0.00000000E+00  0.00000000E+00  0.00000000E+00
  0.00000000E+00  0.00000000E+00  0.00000000E+00
  0.00000000E+00  0.00000000E+00  0.00000000E+00
  0.00000000E+00  0.00000000E+00  0.00000000E+00
  0.00000000E+00  0.00000000E+00  0.00000000E+00
  0.00000000E+00  0.00000000E+00  0.00000000E+00
  0.00000000E+00  0.00000000E+00  0.00000000E+00
  0.00000000E+00  0.00000000E+00  0.00000000E+00
  0.00000000E+00  0.00000000E+00  0.00000000E+00
  0.00000000E+00  0.00000000E+00  0.00000000E+00
  0.00000000E+00  0.00000000E+00  0.00000000E+00
  0.00000000E+00  0.00000000E+00  0.00000000E+00
  0.00000000E+00  0.00000000E+00  0.00000000E+00
  0.00000000E+00  0.00000000E+00  0.00000000E+00
  0.00000000E+00  0.00000000E+00  0.00000000E+00
  0.00000000E+00  0.00000000E+00  0.00000000E+00
  0.00000000E+00  0.00000000E+00  0.00000000E+00
  0.00000000E+00  0.00000000E+00  0.00000000E+00
  0.00000000E+00  0.00000000E+00  0.00000000E+00
  0.00000000E+00  0.00000000E+00  0.00000000E+00
  0.00000000E+00  0.00000000E+00  0.00000000E+00
  0.00000000E+00  0.00000000E+00  0.00000000E+00
  0.00000000E+00  0.00000000E+00  0.00000000E+00
  0.00000000E+00  0.00000000E+00  0.00000000E+00
  0.00000000E+00  0.00000000E+00  0.00000000E+00
  0.00000000E+00  0.00000000E+00  0.00000000E+00
  0.00000000E+00  0.00000000E+00  0.00000000E+00
  0.00000000E+00  0.00000000E+00  0.00000000E+00
  0.00000000E+00  0.00000000E+00  0.00000000E+00
  0.00000000E+00  0.00000000E+00  0.00000000E+00
  0.00000000E+00  0.00000000E+00  0.00000000E+00
  0.00000000E+00  0.00000000E+00  0.00000000E+00
  0.00000000E+00  0.00000000E+00  0.00000000E+00
  0.00000000E+00  0.00000000E+00  0.00000000E+00
  0.00000000E+00  0.00000000E+00  0.00000000E+00
  0.00000000E+00  0.00000000E+00  0.00000000E+00
  0.00000000E+00  0.00000000E+00  0.00000000E+00
  0.00000000E+00  0.00000000E+00  0.00000000E+00
