System = Al2O3_O
PREC = Accurate
EDIFF = 1E-6
EDIFFG = -1E-2
ISTART = 0
NCORE = 4
ICHARG = 2
LREAL = Auto
NSW = 300
ISIF = 2
IBRION = 2
ISMEAR = 0
SIGMA = 0.1
ENCUT = 530
ALGO = Fast
#POTIM = 0.2
LMAXMIX = 4
AMIN = 0.01
NELM = 150
LCHARG = .FALSE.
LWAVE = .FALSE.
KPAR = 8
