POSCAR                                  
   1.00000000000000     
     9.2842620000000000    0.0000000000000000    0.0000000000000000
     0.0000000000000000   10.7205420000000000    0.0000000000000000
     0.0000000000000000    0.0000000000000000   18.2272409999999994
   C    Si
    48    48
Selective dynamics
Direct
  0.0000000000000000  0.0000000000000000  0.3121300000000033   F   F   F
  0.1666669999999968  0.2500000000000000  0.3121300000000033   F   F   F
 -0.0000000000000000  0.3333581769418104  0.4383119440673464   T   T   T
  0.1666669999999968  0.0833581769418104  0.4383119440673464   T   T   T
  0.0000000000000000  0.1666659999999993  0.0348219999999984   F   F   F
  0.1666669999999968  0.4166659999999993  0.0348219999999984   F   F   F
  0.0000000000000000  0.3333330000000032  0.1735180000000014   F   F   F
  0.1666669999999968  0.0833330000000032  0.1735180000000014   F   F   F
  0.3333330000000032  0.0000000000000000  0.3121300000000033   F   F   F
  0.5000000000000000  0.2500000000000000  0.3121300000000033   F   F   F
  0.3333330000000032  0.3333591769418078  0.4383119440673464   T   T   T
  0.5000000000000000  0.0833581769418104  0.4383119440673464   T   T   T
  0.3333330000000032  0.1666659999999993  0.0348219999999984   F   F   F
  0.5000000000000000  0.4166659999999993  0.0348219999999984   F   F   F
  0.3333330000000032  0.3333340000000007  0.1735180000000014   F   F   F
  0.5000000000000000  0.0833330000000032  0.1735180000000014   F   F   F
  0.6666669999999968  0.0000000000000000  0.3121300000000033   F   F   F
  0.8333330000000032  0.2500000000000000  0.3121300000000033   F   F   F
  0.6666669999999968  0.3333581769418104  0.4383119440673464   T   T   T
  0.8333330000000032  0.0833581769418104  0.4383119440673464   T   T   T
  0.6666669999999968  0.1666659999999993  0.0348219999999984   F   F   F
  0.8333330000000032  0.4166659999999993  0.0348219999999984   F   F   F
  0.6666669999999968  0.3333330000000032  0.1735180000000014   F   F   F
  0.8333330000000032  0.0833330000000032  0.1735180000000014   F   F   F
  0.0000000000000000  0.5000000000000000  0.3121300000000033   F   F   F
  0.1666669999999968  0.7500000000000000  0.3121300000000033   F   F   F
 -0.0000000000000000  0.8333581769418102  0.4383119440673464   T   T   T
  0.1666669999999968  0.5833581769418102  0.4383119440673464   T   T   T
  0.0000000000000000  0.6666659999999993  0.0348219999999984   F   F   F
  0.1666669999999968  0.9166659999999993  0.0348219999999984   F   F   F
  0.0000000000000000  0.8333330000000032  0.1735180000000014   F   F   F
  0.1666669999999968  0.5833330000000032  0.1735180000000014   F   F   F
  0.3333330000000032  0.5000000000000000  0.3121300000000033   F   F   F
  0.5000000000000000  0.7500000000000000  0.3121300000000033   F   F   F
  0.3333330000000032  0.8333581769418102  0.4383119440673464   T   T   T
  0.5000000000000000  0.5833581769418102  0.4383119440673464   T   T   T
  0.3333330000000032  0.6666659999999993  0.0348219999999984   F   F   F
  0.5000000000000000  0.9166659999999993  0.0348219999999984   F   F   F
  0.3333330000000032  0.8333330000000032  0.1735180000000014   F   F   F
  0.5000000000000000  0.5833330000000032  0.1735180000000014   F   F   F
  0.6666669999999968  0.5000000000000000  0.3121300000000033   F   F   F
  0.8333330000000032  0.7500000000000000  0.3121300000000033   F   F   F
  0.6666669999999968  0.8333581769418102  0.4383119440673464   T   T   T
  0.8333330000000032  0.5833581769418102  0.4383119440673464   T   T   T
  0.6666669999999968  0.6666659999999993  0.0348219999999984   F   F   F
  0.8333330000000032  0.9166659999999993  0.0348219999999984   F   F   F
  0.6666669999999968  0.8333330000000032  0.1735180000000014   F   F   F
  0.8333330000000032  0.5833330000000032  0.1735180000000014   F   F   F
  0.0000000000000000  0.0000000000000000  0.0000000000000000   F   F   F
  0.1666669999999968  0.2500000000000000  0.0000000000000000   F   F   F
  0.0000000000000000  0.0000000000000000  0.4165490000000034   F   F   F
  0.1666669999999968  0.2500000000000000  0.4165490000000034   F   F   F
  0.0000000000000000  0.1666659999999993  0.1389489999999967   F   F   F
  0.1666669999999968  0.4166659999999993  0.1389489999999967   F   F   F
  0.0000000000000000  0.3333330000000032  0.2776489999999967   F   F   F
  0.1666669999999968  0.0833330000000032  0.2776489999999967   F   F   F
  0.3333330000000032  0.0000000000000000  0.0000000000000000   F   F   F
  0.5000000000000000  0.2500000000000000  0.0000000000000000   F   F   F
  0.3333330000000032  0.0000000000000000  0.4165490000000034   F   F   F
  0.5000000000000000  0.2500000000000000  0.4165490000000034   F   F   F
  0.3333330000000032  0.1666659999999993  0.1389489999999967   F   F   F
  0.5000000000000000  0.4166659999999993  0.1389489999999967   F   F   F
  0.3333330000000032  0.3333340000000007  0.2776489999999967   F   F   F
  0.5000000000000000  0.0833330000000032  0.2776489999999967   F   F   F
  0.6666669999999968  0.0000000000000000  0.0000000000000000   F   F   F
  0.8333330000000032  0.2500000000000000  0.0000000000000000   F   F   F
  0.6666669999999968  0.0000000000000000  0.4165490000000034   F   F   F
  0.8333330000000032  0.2500000000000000  0.4165490000000034   F   F   F
  0.6666669999999968  0.1666659999999993  0.1389489999999967   F   F   F
  0.8333330000000032  0.4166659999999993  0.1389489999999967   F   F   F
  0.6666669999999968  0.3333330000000032  0.2776489999999967   F   F   F
  0.8333330000000032  0.0833330000000032  0.2776489999999967   F   F   F
  0.0000000000000000  0.5000000000000000  0.0000000000000000   F   F   F
  0.1666669999999968  0.7500000000000000  0.0000000000000000   F   F   F
  0.0000000000000000  0.5000000000000000  0.4165490000000034   F   F   F
  0.1666669999999968  0.7500000000000000  0.4165490000000034   F   F   F
  0.0000000000000000  0.6666659999999993  0.1389489999999967   F   F   F
  0.1666669999999968  0.9166659999999993  0.1389489999999967   F   F   F
  0.0000000000000000  0.8333330000000032  0.2776489999999967   F   F   F
  0.1666669999999968  0.5833330000000032  0.2776489999999967   F   F   F
  0.3333330000000032  0.5000000000000000  0.0000000000000000   F   F   F
  0.5000000000000000  0.7500000000000000  0.0000000000000000   F   F   F
  0.3333330000000032  0.5000000000000000  0.4165490000000034   F   F   F
  0.5000000000000000  0.7500000000000000  0.4165490000000034   F   F   F
  0.3333330000000032  0.6666659999999993  0.1389489999999967   F   F   F
  0.5000000000000000  0.9166659999999993  0.1389489999999967   F   F   F
  0.3333330000000032  0.8333330000000032  0.2776489999999967   F   F   F
  0.5000000000000000  0.5833330000000032  0.2776489999999967   F   F   F
  0.6666669999999968  0.5000000000000000  0.0000000000000000   F   F   F
  0.8333330000000032  0.7500000000000000  0.0000000000000000   F   F   F
  0.6666669999999968  0.5000000000000000  0.4165490000000034   F   F   F
  0.8333330000000032  0.7500000000000000  0.4165490000000034   F   F   F
  0.6666669999999968  0.6666659999999993  0.1389489999999967   F   F   F
  0.8333330000000032  0.9166659999999993  0.1389489999999967   F   F   F
  0.6666669999999968  0.8333330000000032  0.2776489999999967   F   F   F
  0.8333330000000032  0.5833330000000032  0.2776489999999967   F   F   F
 
  0.00000000E+00  0.00000000E+00  0.00000000E+00
  0.00000000E+00  0.00000000E+00  0.00000000E+00
  0.00000000E+00  0.00000000E+00  0.00000000E+00
  0.00000000E+00  0.00000000E+00  0.00000000E+00
  0.00000000E+00  0.00000000E+00  0.00000000E+00
  0.00000000E+00  0.00000000E+00  0.00000000E+00
  0.00000000E+00  0.00000000E+00  0.00000000E+00
  0.00000000E+00  0.00000000E+00  0.00000000E+00
  0.00000000E+00  0.00000000E+00  0.00000000E+00
  0.00000000E+00  0.00000000E+00  0.00000000E+00
  0.00000000E+00  0.00000000E+00  0.00000000E+00
  0.00000000E+00  0.00000000E+00  0.00000000E+00
  0.00000000E+00  0.00000000E+00  0.00000000E+00
  0.00000000E+00  0.00000000E+00  0.00000000E+00
  0.00000000E+00  0.00000000E+00  0.00000000E+00
  0.00000000E+00  0.00000000E+00  0.00000000E+00
  0.00000000E+00  0.00000000E+00  0.00000000E+00
  0.00000000E+00  0.00000000E+00  0.00000000E+00
  0.00000000E+00  0.00000000E+00  0.00000000E+00
  0.00000000E+00  0.00000000E+00  0.00000000E+00
  0.00000000E+00  0.00000000E+00  0.00000000E+00
  0.00000000E+00  0.00000000E+00  0.00000000E+00
  0.00000000E+00  0.00000000E+00  0.00000000E+00
  0.00000000E+00  0.00000000E+00  0.00000000E+00
  0.00000000E+00  0.00000000E+00  0.00000000E+00
  0.00000000E+00  0.00000000E+00  0.00000000E+00
  0.00000000E+00  0.00000000E+00  0.00000000E+00
  0.00000000E+00  0.00000000E+00  0.00000000E+00
  0.00000000E+00  0.00000000E+00  0.00000000E+00
  0.00000000E+00  0.00000000E+00  0.00000000E+00
  0.00000000E+00  0.00000000E+00  0.00000000E+00
  0.00000000E+00  0.00000000E+00  0.00000000E+00
  0.00000000E+00  0.00000000E+00  0.00000000E+00
  0.00000000E+00  0.00000000E+00  0.00000000E+00
  0.00000000E+00  0.00000000E+00  0.00000000E+00
  0.00000000E+00  0.00000000E+00  0.00000000E+00
  0.00000000E+00  0.00000000E+00  0.00000000E+00
  0.00000000E+00  0.00000000E+00  0.00000000E+00
  0.00000000E+00  0.00000000E+00  0.00000000E+00
  0.00000000E+00  0.00000000E+00  0.00000000E+00
  0.00000000E+00  0.00000000E+00  0.00000000E+00
  0.00000000E+00  0.00000000E+00  0.00000000E+00
  0.00000000E+00  0.00000000E+00  0.00000000E+00
  0.00000000E+00  0.00000000E+00  0.00000000E+00
  0.00000000E+00  0.00000000E+00  0.00000000E+00
  0.00000000E+00  0.00000000E+00  0.00000000E+00
  0.00000000E+00  0.00000000E+00  0.00000000E+00
  0.00000000E+00  0.00000000E+00  0.00000000E+00
  0.00000000E+00  0.00000000E+00  0.00000000E+00
  0.00000000E+00  0.00000000E+00  0.00000000E+00
  0.00000000E+00  0.00000000E+00  0.00000000E+00
  0.00000000E+00  0.00000000E+00  0.00000000E+00
  0.00000000E+00  0.00000000E+00  0.00000000E+00
  0.00000000E+00  0.00000000E+00  0.00000000E+00
  0.00000000E+00  0.00000000E+00  0.00000000E+00
  0.00000000E+00  0.00000000E+00  0.00000000E+00
  0.00000000E+00  0.00000000E+00  0.00000000E+00
  0.00000000E+00  0.00000000E+00  0.00000000E+00
  0.00000000E+00  0.00000000E+00  0.00000000E+00
  0.00000000E+00  0.00000000E+00  0.00000000E+00
  0.00000000E+00  0.00000000E+00  0.00000000E+00
  0.00000000E+00  0.00000000E+00  0.00000000E+00
  0.00000000E+00  0.00000000E+00  0.00000000E+00
  0.00000000E+00  0.00000000E+00  0.00000000E+00
  0.00000000E+00  0.00000000E+00  0.00000000E+00
  0.00000000E+00  0.00000000E+00  0.00000000E+00
  0.00000000E+00  0.00000000E+00  0.00000000E+00
  0.00000000E+00  0.00000000E+00  0.00000000E+00
  0.00000000E+00  0.00000000E+00  0.00000000E+00
  0.00000000E+00  0.00000000E+00  0.00000000E+00
  0.00000000E+00  0.00000000E+00  0.00000000E+00
  0.00000000E+00  0.00000000E+00  0.00000000E+00
  0.00000000E+00  0.00000000E+00  0.00000000E+00
  0.00000000E+00  0.00000000E+00  0.00000000E+00
  0.00000000E+00  0.00000000E+00  0.00000000E+00
  0.00000000E+00  0.00000000E+00  0.00000000E+00
  0.00000000E+00  0.00000000E+00  0.00000000E+00
  0.00000000E+00  0.00000000E+00  0.00000000E+00
  0.00000000E+00  0.00000000E+00  0.00000000E+00
  0.00000000E+00  0.00000000E+00  0.00000000E+00
  0.00000000E+00  0.00000000E+00  0.00000000E+00
  0.00000000E+00  0.00000000E+00  0.00000000E+00
  0.00000000E+00  0.00000000E+00  0.00000000E+00
  0.00000000E+00  0.00000000E+00  0.00000000E+00
  0.00000000E+00  0.00000000E+00  0.00000000E+00
  0.00000000E+00  0.00000000E+00  0.00000000E+00
  0.00000000E+00  0.00000000E+00  0.00000000E+00
  0.00000000E+00  0.00000000E+00  0.00000000E+00
  0.00000000E+00  0.00000000E+00  0.00000000E+00
  0.00000000E+00  0.00000000E+00  0.00000000E+00
  0.00000000E+00  0.00000000E+00  0.00000000E+00
  0.00000000E+00  0.00000000E+00  0.00000000E+00
  0.00000000E+00  0.00000000E+00  0.00000000E+00
  0.00000000E+00  0.00000000E+00  0.00000000E+00
  0.00000000E+00  0.00000000E+00  0.00000000E+00
  0.00000000E+00  0.00000000E+00  0.00000000E+00
