Si6 C6                                  
   1.00000000000000     
     3.0947541696217615    0.0000000000000000    0.0000000000000000
    -1.5473770848108808    2.6801357293931365    0.0000000000000000
     0.0000000000000000    0.0000000000000000   15.1850713070189585
   Si   C 
     6     6
Direct
  0.0000000000000000  0.0000000000000000  0.4997166633053840
 -0.0000000000000000  0.0000000000000000  0.9997166633053840
  0.3333333429999996  0.6666666870000029  0.1665025266215447
  0.6666666570000004  0.3333333129999971  0.6665025266215446
  0.3333333429999996  0.6666666870000029  0.8329897204051463
  0.6666666570000004  0.3333333129999971  0.3329897204051462
  0.0000000000000000 -0.0000000000000000  0.3743791494340455
 -0.0000000000000000  0.0000000000000000  0.8743791494340456
  0.3333333429999996  0.6666666870000029  0.0415148147004416
  0.6666666570000004  0.3333333129999971  0.5415148147004416
  0.3333333429999996  0.6666666870000029  0.7079981255334364
  0.6666666570000004  0.3333333129999971  0.2079981255334364
 
  0.00000000E+00  0.00000000E+00  0.00000000E+00
  0.00000000E+00  0.00000000E+00  0.00000000E+00
  0.00000000E+00  0.00000000E+00  0.00000000E+00
  0.00000000E+00  0.00000000E+00  0.00000000E+00
  0.00000000E+00  0.00000000E+00  0.00000000E+00
  0.00000000E+00  0.00000000E+00  0.00000000E+00
  0.00000000E+00  0.00000000E+00  0.00000000E+00
  0.00000000E+00  0.00000000E+00  0.00000000E+00
  0.00000000E+00  0.00000000E+00  0.00000000E+00
  0.00000000E+00  0.00000000E+00  0.00000000E+00
  0.00000000E+00  0.00000000E+00  0.00000000E+00
  0.00000000E+00  0.00000000E+00  0.00000000E+00
