K-Spacing Value to Generate K-Mesh: 0.020
0
Gamma
  21  21   3
0.0  0.0  0.0
