Si6 C6
1.0
        3.0766210556         0.0000000000         0.0000000000
       -1.5383105278         2.6644319920         0.0000000000
        0.0000000000         0.0000000000        15.0980844498
   Si    C
    6    6
Direct
     0.000000000         0.000000000         0.499729420
     0.000000000         0.000000000         0.999729420
     0.333333343         0.666666687         0.166500600
     0.666666657         0.333333313         0.666500600
     0.333333343         0.666666687         0.832986150
     0.666666657         0.333333313         0.332986150
     0.000000000         0.000000000         0.374366410
     0.000000000         0.000000000         0.874366410
     0.333333343         0.666666687         0.041521640
     0.666666657         0.333333313         0.541521640
     0.333333343         0.666666687         0.707996780
     0.666666657         0.333333313         0.207996780
