CONTCARSi\(2)                           
   1.00000000000000     
     8.0000000000000000    0.0000000000000000    0.0000000000000000
     0.0000000000000000    9.0000000000000000    0.0000000000000000
     0.0000000000000000    0.0000000000000000   10.0000000000000000
   K    F 
     1     1
Direct
  0.6317073956631851  0.6316751741145730  0.6316534817892733
  0.4682926043368162  0.4683248258854285  0.4683465182107281
 
  0.00000000E+00  0.00000000E+00  0.00000000E+00
  0.00000000E+00  0.00000000E+00  0.00000000E+00
