CONTCARSi\(2)
1.0
        8.0000000000         0.0000000000         0.0000000000
        0.0000000000         9.0000000000         0.0000000000
        0.0000000000         0.0000000000        10.0000000000
    K    F
    1    1
Direct
     0.600000000         0.600000000         0.600000000
     0.500000000         0.500000000         0.500000000
