POSCAR                                  
   1.00000000000000     
     9.2842500000000001    0.0000000000000000    0.0000000000000000
     0.0000000000000000   10.7205279999999998    0.0000000000000000
     0.0000000000000000    0.0000000000000000   19.4958020000000012
  C/              Si/             Pb/           
              48              48               1
Selective dynamics
Direct
  0.0000000000000000  0.0000000000000000  0.0000000000000000   F   F   F
  0.1666669999999968  0.2500000000000000  0.0000000000000000   F   F   F
  0.0000000000000000  0.0000000000000000  0.3894450000000020   F   F   F
  0.1666669999999968  0.2500000000000000  0.3894450000000020   F   F   F
  0.0000000000000000  0.1666659999999993  0.1301800000000028   F   F   F
  0.1666669999999968  0.4166659999999993  0.1301800000000028   F   F   F
  0.0000000000000000  0.3333340000000007  0.2598520000000022   F   F   F
  0.1666669999999968  0.0833330000000032  0.2598520000000022   F   F   F
  0.3333330000000032  0.0000000000000000  0.0000000000000000   F   F   F
  0.5000000000000000  0.2500000000000000  0.0000000000000000   F   F   F
  0.3333330000000032  0.0000000000000000  0.3894450000000020   F   F   F
  0.5000000000000000  0.2500000000000000  0.3894450000000020   F   F   F
  0.3333330000000032  0.1666659999999993  0.1301800000000028   F   F   F
  0.5000000000000000  0.4166659999999993  0.1301800000000028   F   F   F
  0.3333330000000032  0.3333340000000007  0.2598520000000022   F   F   F
  0.5000000000000000  0.0833330000000032  0.2598520000000022   F   F   F
  0.6666669999999968  0.0000000000000000  0.0000000000000000   F   F   F
  0.8333330000000032  0.2500000000000000  0.0000000000000000   F   F   F
  0.6666669999999968  0.0000000000000000  0.3894450000000020   F   F   F
  0.8333330000000032  0.2500000000000000  0.3894450000000020   F   F   F
  0.6666669999999968  0.1666659999999993  0.1301800000000028   F   F   F
  0.8333330000000032  0.4166659999999993  0.1301800000000028   F   F   F
  0.6666669999999968  0.3333340000000007  0.2598520000000022   F   F   F
  0.8333330000000032  0.0833340000000007  0.2598520000000022   F   F   F
  0.0000000000000000  0.5000000000000000  0.0000000000000000   F   F   F
  0.1666669999999968  0.7500000000000000  0.0000000000000000   F   F   F
  0.0000000000000000  0.5000000000000000  0.3894450000000020   F   F   F
  0.1666669999999968  0.7500000000000000  0.3894450000000020   F   F   F
  0.0000000000000000  0.6666659999999993  0.1301800000000028   F   F   F
  0.1666669999999968  0.9166659999999993  0.1301800000000028   F   F   F
  0.0000000000000000  0.8333340000000007  0.2598520000000022   F   F   F
  0.1666669999999968  0.5833340000000007  0.2598520000000022   F   F   F
  0.3333330000000032  0.5000000000000000  0.0000000000000000   F   F   F
  0.5000000000000000  0.7500000000000000  0.0000000000000000   F   F   F
  0.3333330000000032  0.5000000000000000  0.3894450000000020   F   F   F
  0.5000000000000000  0.7500000000000000  0.3894450000000020   F   F   F
  0.3333330000000032  0.6666659999999993  0.1301800000000028   F   F   F
  0.5000000000000000  0.9166669999999968  0.1301800000000028   F   F   F
  0.3333330000000032  0.8333340000000007  0.2598520000000022   F   F   F
  0.5000000000000000  0.5833340000000007  0.2598520000000022   F   F   F
  0.6666669999999968  0.5000000000000000  0.0000000000000000   F   F   F
  0.8333330000000032  0.7500000000000000  0.0000000000000000   F   F   F
  0.6666669999999968  0.5000000000000000  0.3894450000000020   F   F   F
  0.8333330000000032  0.7500000000000000  0.3894450000000020   F   F   F
  0.6666669999999968  0.6666659999999993  0.1301800000000028   F   F   F
  0.8333330000000032  0.9166669999999968  0.1301800000000028   F   F   F
  0.6666669999999968  0.8333340000000007  0.2598520000000022   F   F   F
  0.8333330000000032  0.5833340000000007  0.2598520000000022   F   F   F
  0.0000000000000000  0.0000000000000000  0.0976240000000033   F   F   F
  0.1666669999999968  0.2500000000000000  0.0976240000000033   F   F   F
 -0.0095580969250236 -0.0190153698571810  0.4866541984539697   T   T   T
  0.1739020196268941  0.2520994302310687  0.4861230761198970   T   T   T
  0.0000000000000000  0.1666659999999993  0.2275319999999965   F   F   F
  0.1666669999999968  0.4166659999999993  0.2275319999999965   F   F   F
  0.0000000000000000  0.3333340000000007  0.3572070000000025   F   F   F
  0.1666669999999968  0.0833330000000032  0.3572070000000025   F   F   F
  0.3333330000000032  0.0000000000000000  0.0976240000000033   F   F   F
  0.5000000000000000  0.2500000000000000  0.0976240000000033   F   F   F
  0.3339886987929330  0.0235760405091617  0.4874946312131706   T   T   T
  0.4899788642432494  0.2516336926973491  0.4861080696246282   T   T   T
  0.3333330000000032  0.1666659999999993  0.2275319999999965   F   F   F
  0.5000000000000000  0.4166659999999993  0.2275319999999965   F   F   F
  0.3333330000000032  0.3333340000000007  0.3572070000000025   F   F   F
  0.5000000000000000  0.0833330000000032  0.3572070000000025   F   F   F
  0.6666669999999968  0.0000000000000000  0.0976240000000033   F   F   F
  0.8333330000000032  0.2500000000000000  0.0976240000000033   F   F   F
  0.6759521239944905 -0.0187503485952276  0.4866383569159498   T   T   T
  0.8345026063296500  0.2664101627055590  0.4868698000636438   T   T   T
  0.6666669999999968  0.1666659999999993  0.2275319999999965   F   F   F
  0.8333330000000032  0.4166659999999993  0.2275319999999965   F   F   F
  0.6666669999999968  0.3333340000000007  0.3572070000000025   F   F   F
  0.8333330000000032  0.0833340000000007  0.3572070000000025   F   F   F
  0.0000000000000000  0.5000000000000000  0.0976240000000033   F   F   F
  0.1666669999999968  0.7500000000000000  0.0976240000000033   F   F   F
 -0.0137803944991812  0.5008185540801183  0.4863308349524373   T   T   T
  0.1287074892335194  0.7633729918049059  0.4865457314903434   T   T   T
  0.0000000000000000  0.6666659999999993  0.2275319999999965   F   F   F
  0.1666669999999968  0.9166659999999993  0.2275319999999965   F   F   F
  0.0000000000000000  0.8333340000000007  0.3572070000000025   F   F   F
  0.1666669999999968  0.5833340000000007  0.3572070000000025   F   F   F
  0.3333330000000032  0.5000000000000000  0.0976240000000033   F   F   F
  0.5000000000000000  0.7500000000000000  0.0976240000000033   F   F   F
  0.3318786594460550  0.4610204749422565  0.4864230301194175   T   T   T
  0.5374227841349709  0.7648847258823059  0.4864967444782124   T   T   T
  0.3333330000000032  0.6666659999999993  0.2275319999999965   F   F   F
  0.5000000000000000  0.9166669999999968  0.2275319999999965   F   F   F
  0.3333330000000032  0.8333340000000007  0.3572070000000025   F   F   F
  0.5000000000000000  0.5833340000000007  0.3572070000000025   F   F   F
  0.6666669999999968  0.5000000000000000  0.0976240000000033   F   F   F
  0.8333330000000032  0.7500000000000000  0.0976240000000033   F   F   F
  0.6825979711873443  0.5010228066673920  0.4864387779043355   T   T   T
  0.8331331831776384  0.7449019774977983  0.4853322413414073   T   T   T
  0.6666669999999968  0.6666659999999993  0.2275319999999965   F   F   F
  0.8333330000000032  0.9166669999999968  0.2275319999999965   F   F   F
  0.6666669999999968  0.8333340000000007  0.3572070000000025   F   F   F
  0.8333330000000032  0.5833340000000007  0.3572070000000025   F   F   F
  0.3340184837408316  0.6640335180219623  0.5823977130078489   T   T   T
 
  0.00000000E+00  0.00000000E+00  0.00000000E+00
  0.00000000E+00  0.00000000E+00  0.00000000E+00
  0.00000000E+00  0.00000000E+00  0.00000000E+00
  0.00000000E+00  0.00000000E+00  0.00000000E+00
  0.00000000E+00  0.00000000E+00  0.00000000E+00
  0.00000000E+00  0.00000000E+00  0.00000000E+00
  0.00000000E+00  0.00000000E+00  0.00000000E+00
  0.00000000E+00  0.00000000E+00  0.00000000E+00
  0.00000000E+00  0.00000000E+00  0.00000000E+00
  0.00000000E+00  0.00000000E+00  0.00000000E+00
  0.00000000E+00  0.00000000E+00  0.00000000E+00
  0.00000000E+00  0.00000000E+00  0.00000000E+00
  0.00000000E+00  0.00000000E+00  0.00000000E+00
  0.00000000E+00  0.00000000E+00  0.00000000E+00
  0.00000000E+00  0.00000000E+00  0.00000000E+00
  0.00000000E+00  0.00000000E+00  0.00000000E+00
  0.00000000E+00  0.00000000E+00  0.00000000E+00
  0.00000000E+00  0.00000000E+00  0.00000000E+00
  0.00000000E+00  0.00000000E+00  0.00000000E+00
  0.00000000E+00  0.00000000E+00  0.00000000E+00
  0.00000000E+00  0.00000000E+00  0.00000000E+00
  0.00000000E+00  0.00000000E+00  0.00000000E+00
  0.00000000E+00  0.00000000E+00  0.00000000E+00
  0.00000000E+00  0.00000000E+00  0.00000000E+00
  0.00000000E+00  0.00000000E+00  0.00000000E+00
  0.00000000E+00  0.00000000E+00  0.00000000E+00
  0.00000000E+00  0.00000000E+00  0.00000000E+00
  0.00000000E+00  0.00000000E+00  0.00000000E+00
  0.00000000E+00  0.00000000E+00  0.00000000E+00
  0.00000000E+00  0.00000000E+00  0.00000000E+00
  0.00000000E+00  0.00000000E+00  0.00000000E+00
  0.00000000E+00  0.00000000E+00  0.00000000E+00
  0.00000000E+00  0.00000000E+00  0.00000000E+00
  0.00000000E+00  0.00000000E+00  0.00000000E+00
  0.00000000E+00  0.00000000E+00  0.00000000E+00
  0.00000000E+00  0.00000000E+00  0.00000000E+00
  0.00000000E+00  0.00000000E+00  0.00000000E+00
  0.00000000E+00  0.00000000E+00  0.00000000E+00
  0.00000000E+00  0.00000000E+00  0.00000000E+00
  0.00000000E+00  0.00000000E+00  0.00000000E+00
  0.00000000E+00  0.00000000E+00  0.00000000E+00
  0.00000000E+00  0.00000000E+00  0.00000000E+00
  0.00000000E+00  0.00000000E+00  0.00000000E+00
  0.00000000E+00  0.00000000E+00  0.00000000E+00
  0.00000000E+00  0.00000000E+00  0.00000000E+00
  0.00000000E+00  0.00000000E+00  0.00000000E+00
  0.00000000E+00  0.00000000E+00  0.00000000E+00
  0.00000000E+00  0.00000000E+00  0.00000000E+00
  0.00000000E+00  0.00000000E+00  0.00000000E+00
  0.00000000E+00  0.00000000E+00  0.00000000E+00
  0.00000000E+00  0.00000000E+00  0.00000000E+00
  0.00000000E+00  0.00000000E+00  0.00000000E+00
  0.00000000E+00  0.00000000E+00  0.00000000E+00
  0.00000000E+00  0.00000000E+00  0.00000000E+00
  0.00000000E+00  0.00000000E+00  0.00000000E+00
  0.00000000E+00  0.00000000E+00  0.00000000E+00
  0.00000000E+00  0.00000000E+00  0.00000000E+00
  0.00000000E+00  0.00000000E+00  0.00000000E+00
  0.00000000E+00  0.00000000E+00  0.00000000E+00
  0.00000000E+00  0.00000000E+00  0.00000000E+00
  0.00000000E+00  0.00000000E+00  0.00000000E+00
  0.00000000E+00  0.00000000E+00  0.00000000E+00
  0.00000000E+00  0.00000000E+00  0.00000000E+00
  0.00000000E+00  0.00000000E+00  0.00000000E+00
  0.00000000E+00  0.00000000E+00  0.00000000E+00
  0.00000000E+00  0.00000000E+00  0.00000000E+00
  0.00000000E+00  0.00000000E+00  0.00000000E+00
  0.00000000E+00  0.00000000E+00  0.00000000E+00
  0.00000000E+00  0.00000000E+00  0.00000000E+00
  0.00000000E+00  0.00000000E+00  0.00000000E+00
  0.00000000E+00  0.00000000E+00  0.00000000E+00
  0.00000000E+00  0.00000000E+00  0.00000000E+00
  0.00000000E+00  0.00000000E+00  0.00000000E+00
  0.00000000E+00  0.00000000E+00  0.00000000E+00
  0.00000000E+00  0.00000000E+00  0.00000000E+00
  0.00000000E+00  0.00000000E+00  0.00000000E+00
  0.00000000E+00  0.00000000E+00  0.00000000E+00
  0.00000000E+00  0.00000000E+00  0.00000000E+00
  0.00000000E+00  0.00000000E+00  0.00000000E+00
  0.00000000E+00  0.00000000E+00  0.00000000E+00
  0.00000000E+00  0.00000000E+00  0.00000000E+00
  0.00000000E+00  0.00000000E+00  0.00000000E+00
  0.00000000E+00  0.00000000E+00  0.00000000E+00
  0.00000000E+00  0.00000000E+00  0.00000000E+00
  0.00000000E+00  0.00000000E+00  0.00000000E+00
  0.00000000E+00  0.00000000E+00  0.00000000E+00
  0.00000000E+00  0.00000000E+00  0.00000000E+00
  0.00000000E+00  0.00000000E+00  0.00000000E+00
  0.00000000E+00  0.00000000E+00  0.00000000E+00
  0.00000000E+00  0.00000000E+00  0.00000000E+00
  0.00000000E+00  0.00000000E+00  0.00000000E+00
  0.00000000E+00  0.00000000E+00  0.00000000E+00
  0.00000000E+00  0.00000000E+00  0.00000000E+00
  0.00000000E+00  0.00000000E+00  0.00000000E+00
  0.00000000E+00  0.00000000E+00  0.00000000E+00
  0.00000000E+00  0.00000000E+00  0.00000000E+00
  0.00000000E+00  0.00000000E+00  0.00000000E+00
