Al12 O18                                
   1.00000000000000     
     2.4037254371944714   -4.1633745846665366    0.0000000000000000
     2.4037254371944714    4.1633745846665366   -0.0000000000000000
     0.0000000000000000    0.0000000000000000   13.1211745551138179
   Al   O 
    12    18
Direct
  0.3333333333333357  0.6666666666666643  0.8145396761735999
  0.6666666666666643  0.3333333333333357  0.6854603238264001
 -0.0000000000000000 -0.0000000000000000  0.6478730095069285
  0.3333333333333357  0.6666666666666643  0.5187936571597358
 -0.0000000000000000 -0.0000000000000000  0.1478730095069286
  0.3333333333333357  0.6666666666666643  0.0187936571597358
  0.6666666666666643  0.3333333333333357  0.9812063428402642
 -0.0000000000000000 -0.0000000000000000  0.8521269904930715
  0.6666666666666643  0.3333333333333357  0.4812063428402643
 -0.0000000000000000 -0.0000000000000000  0.3521269904930714
  0.3333333333333357  0.6666666666666643  0.3145396761736000
  0.6666666666666643  0.3333333333333357  0.1854603238264000
  0.3604917873381046  0.3333333333333357  0.5833333333333357
  0.6938251206714402  0.6938251206714402  0.7500000000000000
  0.9728415459952241  0.6395082126618955  0.5833333333333357
  0.6666666666666643  0.0271584540047760  0.5833333333333357
 -0.0000000000000000  0.3061748793285597  0.7500000000000000
  0.3061748793285597  0.0000000000000000  0.7500000000000000
  0.0271584540047760  0.6666666666666643  0.9166666666666643
  0.3604917873381046  0.0271584540047760  0.0833333333333357
  0.6395082126618955  0.9728415459952241  0.9166666666666643
  0.3333333333333357  0.3604917873381046  0.9166666666666643
  0.6666666666666643  0.6395082126618955  0.0833333333333357
  0.9728415459952241  0.3333333333333357  0.0833333333333357
  0.6938251206714402 -0.0000000000000000  0.2500000000000000
  0.0271584540047760  0.3604917873381046  0.4166666666666643
  0.3061748793285597  0.3061748793285597  0.2500000000000000
 -0.0000000000000000  0.6938251206714402  0.2500000000000000
  0.3333333333333357  0.9728415459952241  0.4166666666666643
  0.6395082126618955  0.6666666666666643  0.4166666666666643
 
  0.00000000E+00  0.00000000E+00  0.00000000E+00
  0.00000000E+00  0.00000000E+00  0.00000000E+00
  0.00000000E+00  0.00000000E+00  0.00000000E+00
  0.00000000E+00  0.00000000E+00  0.00000000E+00
  0.00000000E+00  0.00000000E+00  0.00000000E+00
  0.00000000E+00  0.00000000E+00  0.00000000E+00
  0.00000000E+00  0.00000000E+00  0.00000000E+00
  0.00000000E+00  0.00000000E+00  0.00000000E+00
  0.00000000E+00  0.00000000E+00  0.00000000E+00
  0.00000000E+00  0.00000000E+00  0.00000000E+00
  0.00000000E+00  0.00000000E+00  0.00000000E+00
  0.00000000E+00  0.00000000E+00  0.00000000E+00
  0.00000000E+00  0.00000000E+00  0.00000000E+00
  0.00000000E+00  0.00000000E+00  0.00000000E+00
  0.00000000E+00  0.00000000E+00  0.00000000E+00
  0.00000000E+00  0.00000000E+00  0.00000000E+00
  0.00000000E+00  0.00000000E+00  0.00000000E+00
  0.00000000E+00  0.00000000E+00  0.00000000E+00
  0.00000000E+00  0.00000000E+00  0.00000000E+00
  0.00000000E+00  0.00000000E+00  0.00000000E+00
  0.00000000E+00  0.00000000E+00  0.00000000E+00
  0.00000000E+00  0.00000000E+00  0.00000000E+00
  0.00000000E+00  0.00000000E+00  0.00000000E+00
  0.00000000E+00  0.00000000E+00  0.00000000E+00
  0.00000000E+00  0.00000000E+00  0.00000000E+00
  0.00000000E+00  0.00000000E+00  0.00000000E+00
  0.00000000E+00  0.00000000E+00  0.00000000E+00
  0.00000000E+00  0.00000000E+00  0.00000000E+00
  0.00000000E+00  0.00000000E+00  0.00000000E+00
  0.00000000E+00  0.00000000E+00  0.00000000E+00
