POSCAR 
1.0 
9.284262 0.000000 0.000000 
0.000000 10.720542 0.000000 
0.000000 0.000000 18.227241 
C Si 
48 48 
Selective Dynamics
Direct 
0.000000 0.000000 0.312130 F F F 
0.166667 0.250000 0.312130 F F F 
0.000000 0.333333 0.451371 T T T 
0.166667 0.083333 0.451371 T T T 
-0.000000 0.166666 0.034822 F F F 
0.166667 0.416666 0.034822 F F F 
0.000000 0.333333 0.173518 F F F 
0.166667 0.083333 0.173518 F F F 
0.333333 -0.000000 0.312130 F F F 
0.500000 0.250000 0.312130 F F F 
0.333333 0.333334 0.451371 T T T 
0.500000 0.083333 0.451371 T T T 
0.333333 0.166666 0.034822 F F F 
0.500000 0.416666 0.034822 F F F 
0.333333 0.333334 0.173518 F F F 
0.500000 0.083333 0.173518 F F F 
0.666667 -0.000000 0.312130 F F F 
0.833333 0.250000 0.312130 F F F 
0.666667 0.333333 0.451371 T T T 
0.833333 0.083333 0.451371 T T T 
0.666667 0.166666 0.034822 F F F 
0.833333 0.416666 0.034822 F F F 
0.666667 0.333333 0.173518 F F F 
0.833333 0.083333 0.173518 F F F 
0.000000 0.500000 0.312130 F F F 
0.166667 0.750000 0.312130 F F F 
0.000000 0.833333 0.451371 T T T 
0.166667 0.583333 0.451371 T T T 
-0.000000 0.666666 0.034822 F F F 
0.166667 0.916666 0.034822 F F F 
0.000000 0.833333 0.173518 F F F 
0.166667 0.583333 0.173518 F F F 
0.333333 0.500000 0.312130 F F F 
0.500000 0.750000 0.312130 F F F 
0.333333 0.833333 0.451371 T T T 
0.500000 0.583333 0.451371 T T T 
0.333333 0.666666 0.034822 F F F 
0.500000 0.916666 0.034822 F F F 
0.333333 0.833333 0.173518 F F F 
0.500000 0.583333 0.173518 F F F 
0.666667 0.500000 0.312130 F F F 
0.833333 0.750000 0.312130 F F F 
0.666667 0.833333 0.451371 T T T 
0.833333 0.583333 0.451371 T T T 
0.666667 0.666666 0.034822 F F F 
0.833333 0.916666 0.034822 F F F 
0.666667 0.833333 0.173518 F F F 
0.833333 0.583333 0.173518 F F F 
0.000000 0.000000 0.000000 F F F 
0.166667 0.250000 0.000000 F F F 
0.000000 0.000000 0.416549 T T T 
0.166667 0.250000 0.416549 T T T 
-0.000000 0.166666 0.138949 F F F 
0.166667 0.416666 0.138949 F F F 
0.000000 0.333333 0.277649 F F F 
0.166667 0.083333 0.277649 F F F 
0.333333 -0.000000 0.000000 F F F 
0.500000 0.250000 0.000000 F F F 
0.333333 -0.000000 0.416549 T T T 
0.500000 0.250000 0.416549 T T T 
0.333333 0.166666 0.138949 F F F 
0.500000 0.416666 0.138949 F F F 
0.333333 0.333334 0.277649 F F F 
0.500000 0.083333 0.277649 F F F 
0.666667 -0.000000 0.000000 F F F 
0.833333 0.250000 0.000000 F F F 
0.666667 -0.000000 0.416549 T T T 
0.833333 0.250000 0.416549 T T T 
0.666667 0.166666 0.138949 F F F 
0.833333 0.416666 0.138949 F F F 
0.666667 0.333333 0.277649 F F F 
0.833333 0.083333 0.277649 F F F 
0.000000 0.500000 0.000000 F F F 
0.166667 0.750000 0.000000 F F F 
0.000000 0.500000 0.416549 T T T 
0.166667 0.750000 0.416549 T T T 
-0.000000 0.666666 0.138949 F F F 
0.166667 0.916666 0.138949 F F F 
0.000000 0.833333 0.277649 F F F 
0.166667 0.583333 0.277649 F F F 
0.333333 0.500000 0.000000 F F F 
0.500000 0.750000 0.000000 F F F 
0.333333 0.500000 0.416549 T T T 
0.500000 0.750000 0.416549 T T T 
0.333333 0.666666 0.138949 F F F 
0.500000 0.916666 0.138949 F F F 
0.333333 0.833333 0.277649 F F F 
0.500000 0.583333 0.277649 F F F 
0.666667 0.500000 0.000000 F F F 
0.833333 0.750000 0.000000 F F F 
0.666667 0.500000 0.416549 T T T 
0.833333 0.750000 0.416549 T T T 
0.666667 0.666666 0.138949 F F F 
0.833333 0.916666 0.138949 F F F 
0.666667 0.833333 0.277649 F F F 
0.833333 0.583333 0.277649 F F F 
