POSCAR                                  
   1.00000000000000     
     9.2842620000000000    0.0000000000000000    0.0000000000000000
     0.0000000000000000   10.7205420000000000    0.0000000000000000
     0.0000000000000000    0.0000000000000000   18.2272420000000004
   C    F    Si   K 
    48     1    48     1
Selective dynamics
Direct
  0.0000000000000000  0.0000000000000000  0.3121300000000033   F   F   F
  0.1666669999999968  0.2500000000000000  0.3121300000000033   F   F   F
  0.9999267349551957  0.3332329849871627  0.4388483890159947   T   T   T
  0.1666503454810879  0.0832597453461901  0.4384866506736529   T   T   T
  0.0000000000000000  0.1666659999999993  0.0348219999999984   F   F   F
  0.1666669999999968  0.4166659999999993  0.0348219999999984   F   F   F
  0.0000000000000000  0.3333330000000032  0.1735180000000014   F   F   F
  0.1666669999999968  0.0833330000000032  0.1735180000000014   F   F   F
  0.3333330000000032  0.0000000000000000  0.3121300000000033   F   F   F
  0.5000000000000000  0.2500000000000000  0.3121300000000033   F   F   F
  0.3336243950599425  0.3337079705696766  0.4405182474864731   T   T   T
  0.5000876247889749  0.0833472394133352  0.4382312894366720   T   T   T
  0.3333330000000032  0.1666659999999993  0.0348219999999984   F   F   F
  0.5000000000000000  0.4166659999999993  0.0348219999999984   F   F   F
  0.3333330000000032  0.3333340000000007  0.1735180000000014   F   F   F
  0.5000000000000000  0.0833330000000032  0.1735180000000014   F   F   F
  0.6666669999999968  0.0000000000000000  0.3121300000000033   F   F   F
  0.8333330000000032  0.2500000000000000  0.3121300000000033   F   F   F
  0.6664861592321074  0.3336101870683166  0.4388470669060425   T   T   T
  0.8332640450296367  0.0832946766590013  0.4386345538036451   T   T   T
  0.6666669999999968  0.1666659999999993  0.0348219999999984   F   F   F
  0.8333330000000032  0.4166659999999993  0.0348219999999984   F   F   F
  0.6666669999999968  0.3333330000000032  0.1735180000000014   F   F   F
  0.8333330000000032  0.0833330000000032  0.1735180000000014   F   F   F
  0.0000000000000000  0.5000000000000000  0.3121300000000033   F   F   F
  0.1666669999999968  0.7500000000000000  0.3121300000000033   F   F   F
  0.9999224465874974  0.8334372712894975  0.4385560763504017   T   T   T
  0.1670993360972872  0.5834188678782226  0.4435270600023813   T   T   T
  0.0000000000000000  0.6666659999999993  0.0348219999999984   F   F   F
  0.1666669999999968  0.9166659999999993  0.0348219999999984   F   F   F
  0.0000000000000000  0.8333330000000032  0.1735180000000014   F   F   F
  0.1666669999999968  0.5833330000000032  0.1735180000000014   F   F   F
  0.3333330000000032  0.5000000000000000  0.3121300000000033   F   F   F
  0.5000000000000000  0.7500000000000000  0.3121300000000033   F   F   F
  0.3335855905138061  0.8330047994304408  0.4401231229265363   T   T   T
  0.5000865623069259  0.5833214042738533  0.4488751627460630   T   T   T
  0.3333330000000032  0.6666659999999993  0.0348219999999984   F   F   F
  0.5000000000000000  0.9166659999999993  0.0348219999999984   F   F   F
  0.3333330000000032  0.8333330000000032  0.1735180000000014   F   F   F
  0.5000000000000000  0.5833330000000032  0.1735180000000014   F   F   F
  0.6666669999999968  0.5000000000000000  0.3121300000000033   F   F   F
  0.8333330000000032  0.7500000000000000  0.3121300000000033   F   F   F
  0.6664832137176759  0.8330259751224318  0.4389167353267425   T   T   T
  0.8328924355565661  0.5833663400120770  0.4391846085675013   T   T   T
  0.6666669999999968  0.6666659999999993  0.0348219999999984   F   F   F
  0.8333330000000032  0.9166659999999993  0.0348219999999984   F   F   F
  0.6666669999999968  0.8333330000000032  0.1735180000000014   F   F   F
  0.8333330000000032  0.5833330000000032  0.1735180000000014   F   F   F
  0.4977617916782862  0.5835550934537821  0.5306489627109343   T   T   T
  0.0000000000000000  0.0000000000000000  0.0000000000000000   F   F   F
  0.1666669999999968  0.2500000000000000  0.0000000000000000   F   F   F
  0.0000000000000000  0.0000000000000000  0.4165490000000034   F   F   F
  0.1666669999999968  0.2500000000000000  0.4165490000000034   F   F   F
  0.0000000000000000  0.1666659999999993  0.1389489999999967   F   F   F
  0.1666669999999968  0.4166659999999993  0.1389489999999967   F   F   F
  0.0000000000000000  0.3333330000000032  0.2776489999999967   F   F   F
  0.1666669999999968  0.0833330000000032  0.2776489999999967   F   F   F
  0.3333330000000032  0.0000000000000000  0.0000000000000000   F   F   F
  0.5000000000000000  0.2500000000000000  0.0000000000000000   F   F   F
  0.3333330000000032  0.0000000000000000  0.4165490000000034   F   F   F
  0.5000000000000000  0.2500000000000000  0.4165490000000034   F   F   F
  0.3333330000000032  0.1666659999999993  0.1389489999999967   F   F   F
  0.5000000000000000  0.4166659999999993  0.1389489999999967   F   F   F
  0.3333330000000032  0.3333340000000007  0.2776489999999967   F   F   F
  0.5000000000000000  0.0833330000000032  0.2776489999999967   F   F   F
  0.6666669999999968  0.0000000000000000  0.0000000000000000   F   F   F
  0.8333330000000032  0.2500000000000000  0.0000000000000000   F   F   F
  0.6666669999999968  0.0000000000000000  0.4165490000000034   F   F   F
  0.8333330000000032  0.2500000000000000  0.4165490000000034   F   F   F
  0.6666669999999968  0.1666659999999993  0.1389489999999967   F   F   F
  0.8333330000000032  0.4166659999999993  0.1389489999999967   F   F   F
  0.6666669999999968  0.3333330000000032  0.2776489999999967   F   F   F
  0.8333330000000032  0.0833330000000032  0.2776489999999967   F   F   F
  0.0000000000000000  0.5000000000000000  0.0000000000000000   F   F   F
  0.1666669999999968  0.7500000000000000  0.0000000000000000   F   F   F
  0.0000000000000000  0.5000000000000000  0.4165490000000034   F   F   F
  0.1666669999999968  0.7500000000000000  0.4165490000000034   F   F   F
  0.0000000000000000  0.6666659999999993  0.1389489999999967   F   F   F
  0.1666669999999968  0.9166659999999993  0.1389489999999967   F   F   F
  0.0000000000000000  0.8333330000000032  0.2776489999999967   F   F   F
  0.1666669999999968  0.5833330000000032  0.2776489999999967   F   F   F
  0.3333330000000032  0.5000000000000000  0.0000000000000000   F   F   F
  0.5000000000000000  0.7500000000000000  0.0000000000000000   F   F   F
  0.3333330000000032  0.5000000000000000  0.4165490000000034   F   F   F
  0.5000000000000000  0.7500000000000000  0.4165490000000034   F   F   F
  0.3333330000000032  0.6666659999999993  0.1389489999999967   F   F   F
  0.5000000000000000  0.9166659999999993  0.1389489999999967   F   F   F
  0.3333330000000032  0.8333330000000032  0.2776489999999967   F   F   F
  0.5000000000000000  0.5833330000000032  0.2776489999999967   F   F   F
  0.6666669999999968  0.5000000000000000  0.0000000000000000   F   F   F
  0.8333330000000032  0.7500000000000000  0.0000000000000000   F   F   F
  0.6666669999999968  0.5000000000000000  0.4165490000000034   F   F   F
  0.8333330000000032  0.7500000000000000  0.4165490000000034   F   F   F
  0.6666669999999968  0.6666659999999993  0.1389489999999967   F   F   F
  0.8333330000000032  0.9166659999999993  0.1389489999999967   F   F   F
  0.6666669999999968  0.8333330000000032  0.2776489999999967   F   F   F
  0.8333330000000032  0.5833330000000032  0.2776489999999967   F   F   F
  0.2406978893323100  0.5764121732125744  0.5920099548150191   T   T   T
 
  0.00000000E+00  0.00000000E+00  0.00000000E+00
  0.00000000E+00  0.00000000E+00  0.00000000E+00
  0.00000000E+00  0.00000000E+00  0.00000000E+00
  0.00000000E+00  0.00000000E+00  0.00000000E+00
  0.00000000E+00  0.00000000E+00  0.00000000E+00
  0.00000000E+00  0.00000000E+00  0.00000000E+00
  0.00000000E+00  0.00000000E+00  0.00000000E+00
  0.00000000E+00  0.00000000E+00  0.00000000E+00
  0.00000000E+00  0.00000000E+00  0.00000000E+00
  0.00000000E+00  0.00000000E+00  0.00000000E+00
  0.00000000E+00  0.00000000E+00  0.00000000E+00
  0.00000000E+00  0.00000000E+00  0.00000000E+00
  0.00000000E+00  0.00000000E+00  0.00000000E+00
  0.00000000E+00  0.00000000E+00  0.00000000E+00
  0.00000000E+00  0.00000000E+00  0.00000000E+00
  0.00000000E+00  0.00000000E+00  0.00000000E+00
  0.00000000E+00  0.00000000E+00  0.00000000E+00
  0.00000000E+00  0.00000000E+00  0.00000000E+00
  0.00000000E+00  0.00000000E+00  0.00000000E+00
  0.00000000E+00  0.00000000E+00  0.00000000E+00
  0.00000000E+00  0.00000000E+00  0.00000000E+00
  0.00000000E+00  0.00000000E+00  0.00000000E+00
  0.00000000E+00  0.00000000E+00  0.00000000E+00
  0.00000000E+00  0.00000000E+00  0.00000000E+00
  0.00000000E+00  0.00000000E+00  0.00000000E+00
  0.00000000E+00  0.00000000E+00  0.00000000E+00
  0.00000000E+00  0.00000000E+00  0.00000000E+00
  0.00000000E+00  0.00000000E+00  0.00000000E+00
  0.00000000E+00  0.00000000E+00  0.00000000E+00
  0.00000000E+00  0.00000000E+00  0.00000000E+00
  0.00000000E+00  0.00000000E+00  0.00000000E+00
  0.00000000E+00  0.00000000E+00  0.00000000E+00
  0.00000000E+00  0.00000000E+00  0.00000000E+00
  0.00000000E+00  0.00000000E+00  0.00000000E+00
  0.00000000E+00  0.00000000E+00  0.00000000E+00
  0.00000000E+00  0.00000000E+00  0.00000000E+00
  0.00000000E+00  0.00000000E+00  0.00000000E+00
  0.00000000E+00  0.00000000E+00  0.00000000E+00
  0.00000000E+00  0.00000000E+00  0.00000000E+00
  0.00000000E+00  0.00000000E+00  0.00000000E+00
  0.00000000E+00  0.00000000E+00  0.00000000E+00
  0.00000000E+00  0.00000000E+00  0.00000000E+00
  0.00000000E+00  0.00000000E+00  0.00000000E+00
  0.00000000E+00  0.00000000E+00  0.00000000E+00
  0.00000000E+00  0.00000000E+00  0.00000000E+00
  0.00000000E+00  0.00000000E+00  0.00000000E+00
  0.00000000E+00  0.00000000E+00  0.00000000E+00
  0.00000000E+00  0.00000000E+00  0.00000000E+00
  0.00000000E+00  0.00000000E+00  0.00000000E+00
  0.00000000E+00  0.00000000E+00  0.00000000E+00
  0.00000000E+00  0.00000000E+00  0.00000000E+00
  0.00000000E+00  0.00000000E+00  0.00000000E+00
  0.00000000E+00  0.00000000E+00  0.00000000E+00
  0.00000000E+00  0.00000000E+00  0.00000000E+00
  0.00000000E+00  0.00000000E+00  0.00000000E+00
  0.00000000E+00  0.00000000E+00  0.00000000E+00
  0.00000000E+00  0.00000000E+00  0.00000000E+00
  0.00000000E+00  0.00000000E+00  0.00000000E+00
  0.00000000E+00  0.00000000E+00  0.00000000E+00
  0.00000000E+00  0.00000000E+00  0.00000000E+00
  0.00000000E+00  0.00000000E+00  0.00000000E+00
  0.00000000E+00  0.00000000E+00  0.00000000E+00
  0.00000000E+00  0.00000000E+00  0.00000000E+00
  0.00000000E+00  0.00000000E+00  0.00000000E+00
  0.00000000E+00  0.00000000E+00  0.00000000E+00
  0.00000000E+00  0.00000000E+00  0.00000000E+00
  0.00000000E+00  0.00000000E+00  0.00000000E+00
  0.00000000E+00  0.00000000E+00  0.00000000E+00
  0.00000000E+00  0.00000000E+00  0.00000000E+00
  0.00000000E+00  0.00000000E+00  0.00000000E+00
  0.00000000E+00  0.00000000E+00  0.00000000E+00
  0.00000000E+00  0.00000000E+00  0.00000000E+00
  0.00000000E+00  0.00000000E+00  0.00000000E+00
  0.00000000E+00  0.00000000E+00  0.00000000E+00
  0.00000000E+00  0.00000000E+00  0.00000000E+00
  0.00000000E+00  0.00000000E+00  0.00000000E+00
  0.00000000E+00  0.00000000E+00  0.00000000E+00
  0.00000000E+00  0.00000000E+00  0.00000000E+00
  0.00000000E+00  0.00000000E+00  0.00000000E+00
  0.00000000E+00  0.00000000E+00  0.00000000E+00
  0.00000000E+00  0.00000000E+00  0.00000000E+00
  0.00000000E+00  0.00000000E+00  0.00000000E+00
  0.00000000E+00  0.00000000E+00  0.00000000E+00
  0.00000000E+00  0.00000000E+00  0.00000000E+00
  0.00000000E+00  0.00000000E+00  0.00000000E+00
  0.00000000E+00  0.00000000E+00  0.00000000E+00
  0.00000000E+00  0.00000000E+00  0.00000000E+00
  0.00000000E+00  0.00000000E+00  0.00000000E+00
  0.00000000E+00  0.00000000E+00  0.00000000E+00
  0.00000000E+00  0.00000000E+00  0.00000000E+00
  0.00000000E+00  0.00000000E+00  0.00000000E+00
  0.00000000E+00  0.00000000E+00  0.00000000E+00
  0.00000000E+00  0.00000000E+00  0.00000000E+00
  0.00000000E+00  0.00000000E+00  0.00000000E+00
  0.00000000E+00  0.00000000E+00  0.00000000E+00
  0.00000000E+00  0.00000000E+00  0.00000000E+00
  0.00000000E+00  0.00000000E+00  0.00000000E+00
  0.00000000E+00  0.00000000E+00  0.00000000E+00
