SCAR                                    
   1.00000000000000     
     9.6149020000000007    0.0000000000000000    0.0000000000000000
     0.0000000000000000    8.3267489999999995    0.0000000000000000
     0.0000000000000000    0.0000000000000000   21.5605870000000017
   O    F    Al   K 
    36     1    28     1
Selective dynamics
Direct
  0.1734560000000016  0.9864200000000025  0.0621519999999975   F   F   F
  0.4234560000000016  0.4864200000000025  0.0621519999999975   F   F   F
  0.0969130000000007  0.5000000000000000  0.1635810000000006   F   F   F
  0.3469130000000007  0.0000000000000000  0.1635810000000006   F   F   F
  0.1530879999999968  0.3333330000000032  0.0621519999999975   F   F   F
  0.4030879999999968  0.8333330000000032  0.0621519999999975   F   F   F
  0.1734560000000016  0.6802449999999993  0.0621519999999975   F   F   F
  0.4234560000000016  0.1802459999999968  0.0621519999999975   F   F   F
  0.0765439999999984  0.1530869999999993  0.1635810000000006   F   F   F
  0.3265439999999984  0.6530869999999993  0.1635810000000006   F   F   F
  0.0765439999999984  0.8469120000000032  0.1635810000000006   F   F   F
  0.3265439999999984  0.3469120000000032  0.1635810000000006   F   F   F
  0.1734560000000016  0.3197550000000007  0.2650089999999992   F   F   F
  0.4234560000000016  0.8197550000000007  0.2650089999999992   F   F   F
  0.1530869999999993  0.6666669999999968  0.2650089999999992   F   F   F
  0.4030879999999968  0.1666669999999968  0.2650089999999992   F   F   F
  0.1734560000000016  0.0135799999999975  0.2650089999999992   F   F   F
  0.4234560000000016  0.5135790000000000  0.2650089999999992   F   F   F
  0.6734560000000016  0.9864200000000025  0.0621519999999975   F   F   F
  0.9234560000000016  0.4864200000000025  0.0621519999999975   F   F   F
  0.5969130000000007  0.5000000000000000  0.1635810000000006   F   F   F
  0.8469130000000007  0.0000000000000000  0.1635810000000006   F   F   F
  0.6530879999999968  0.3333330000000032  0.0621519999999975   F   F   F
  0.9030879999999968  0.8333330000000032  0.0621519999999975   F   F   F
  0.6734560000000016  0.6802449999999993  0.0621519999999975   F   F   F
  0.9234560000000016  0.1802449999999993  0.0621519999999975   F   F   F
  0.5765439999999984  0.1530869999999993  0.1635810000000006   F   F   F
  0.8265439999999984  0.6530869999999993  0.1635810000000006   F   F   F
  0.5765439999999984  0.8469120000000032  0.1635810000000006   F   F   F
  0.8265439999999984  0.3469120000000032  0.1635810000000006   F   F   F
  0.6734560000000016  0.3197550000000007  0.2650089999999992   F   F   F
  0.9234560000000016  0.8197550000000007  0.2650089999999992   F   F   F
  0.6530869999999993  0.6666669999999968  0.2650089999999992   F   F   F
  0.9030879999999968  0.1666669999999968  0.2650089999999992   F   F   F
  0.6734560000000016  0.0135790000000000  0.2650089999999992   F   F   F
  0.9234560000000016  0.5135799999999975  0.2650089999999992   F   F   F
  0.4846031773588823  0.3251313197375155  0.3714031183185940   T   T   T
  0.0000000000000000  0.6666669999999968  0.2028579999999991   F   F   F
  0.2500000000000000  0.1666669999999968  0.2028579999999991   F   F   F
  0.0000000000000000  0.3333330000000032  0.1243029999999976   F   F   F
  0.2500000000000000  0.8333330000000032  0.1243029999999976   F   F   F
  0.0000000000000000  0.0000000000000000  0.1014290000000031   F   F   F
  0.2500000000000000  0.5000000000000000  0.1014290000000031   F   F   F
  0.0000000000000000  0.6666669999999968  0.0228749999999991   F   F   F
  0.2500000000000000  0.1666669999999968  0.0228749999999991   F   F   F
  0.9981167406587087  0.3341254050047283  0.2711206246643944   T   T   T
  0.2508260704594757  0.8312858896855803  0.2699637538857357   T   T   T
  0.0000000000000000  0.0000000000000000  0.2257320000000007   F   F   F
  0.2500000000000000  0.5000000000000000  0.2257320000000007   F   F   F
  0.0000000000000000  0.3333330000000032  0.0000000000000000   F   F   F
  0.2500000000000000  0.8333330000000032  0.0000000000000000   F   F   F
  0.5000000000000000  0.6666669999999968  0.2028579999999991   F   F   F
  0.7500000000000000  0.1666669999999968  0.2028579999999991   F   F   F
  0.5000000000000000  0.3333330000000032  0.1243029999999976   F   F   F
  0.7500000000000000  0.8333330000000032  0.1243029999999976   F   F   F
  0.5000000000000000  0.0000000000000000  0.1014290000000031   F   F   F
  0.7500000000000000  0.5000000000000000  0.1014290000000031   F   F   F
  0.5000000000000000  0.6666669999999968  0.0228749999999991   F   F   F
  0.7500000000000000  0.1666669999999968  0.0228749999999991   F   F   F
  0.5029878873133150  0.3361490778288129  0.2912369490014699   T   T   T
  0.7493733902068697  0.8331950840960005  0.2753482158610187   T   T   T
  0.5000000000000000  0.0000000000000000  0.2257320000000007   F   F   F
  0.7500000000000000  0.5000000000000000  0.2257320000000007   F   F   F
  0.5000000000000000  0.3333330000000032  0.0000000000000000   F   F   F
  0.7500000000000000  0.8333330000000032  0.0000000000000000   F   F   F
  0.2652372758044553  0.1689033467600452  0.3722183806734687   T   T   T
 
  0.00000000E+00  0.00000000E+00  0.00000000E+00
  0.00000000E+00  0.00000000E+00  0.00000000E+00
  0.00000000E+00  0.00000000E+00  0.00000000E+00
  0.00000000E+00  0.00000000E+00  0.00000000E+00
  0.00000000E+00  0.00000000E+00  0.00000000E+00
  0.00000000E+00  0.00000000E+00  0.00000000E+00
  0.00000000E+00  0.00000000E+00  0.00000000E+00
  0.00000000E+00  0.00000000E+00  0.00000000E+00
  0.00000000E+00  0.00000000E+00  0.00000000E+00
  0.00000000E+00  0.00000000E+00  0.00000000E+00
  0.00000000E+00  0.00000000E+00  0.00000000E+00
  0.00000000E+00  0.00000000E+00  0.00000000E+00
  0.00000000E+00  0.00000000E+00  0.00000000E+00
  0.00000000E+00  0.00000000E+00  0.00000000E+00
  0.00000000E+00  0.00000000E+00  0.00000000E+00
  0.00000000E+00  0.00000000E+00  0.00000000E+00
  0.00000000E+00  0.00000000E+00  0.00000000E+00
  0.00000000E+00  0.00000000E+00  0.00000000E+00
  0.00000000E+00  0.00000000E+00  0.00000000E+00
  0.00000000E+00  0.00000000E+00  0.00000000E+00
  0.00000000E+00  0.00000000E+00  0.00000000E+00
  0.00000000E+00  0.00000000E+00  0.00000000E+00
  0.00000000E+00  0.00000000E+00  0.00000000E+00
  0.00000000E+00  0.00000000E+00  0.00000000E+00
  0.00000000E+00  0.00000000E+00  0.00000000E+00
  0.00000000E+00  0.00000000E+00  0.00000000E+00
  0.00000000E+00  0.00000000E+00  0.00000000E+00
  0.00000000E+00  0.00000000E+00  0.00000000E+00
  0.00000000E+00  0.00000000E+00  0.00000000E+00
  0.00000000E+00  0.00000000E+00  0.00000000E+00
  0.00000000E+00  0.00000000E+00  0.00000000E+00
  0.00000000E+00  0.00000000E+00  0.00000000E+00
  0.00000000E+00  0.00000000E+00  0.00000000E+00
  0.00000000E+00  0.00000000E+00  0.00000000E+00
  0.00000000E+00  0.00000000E+00  0.00000000E+00
  0.00000000E+00  0.00000000E+00  0.00000000E+00
  0.00000000E+00  0.00000000E+00  0.00000000E+00
  0.00000000E+00  0.00000000E+00  0.00000000E+00
  0.00000000E+00  0.00000000E+00  0.00000000E+00
  0.00000000E+00  0.00000000E+00  0.00000000E+00
  0.00000000E+00  0.00000000E+00  0.00000000E+00
  0.00000000E+00  0.00000000E+00  0.00000000E+00
  0.00000000E+00  0.00000000E+00  0.00000000E+00
  0.00000000E+00  0.00000000E+00  0.00000000E+00
  0.00000000E+00  0.00000000E+00  0.00000000E+00
  0.00000000E+00  0.00000000E+00  0.00000000E+00
  0.00000000E+00  0.00000000E+00  0.00000000E+00
  0.00000000E+00  0.00000000E+00  0.00000000E+00
  0.00000000E+00  0.00000000E+00  0.00000000E+00
  0.00000000E+00  0.00000000E+00  0.00000000E+00
  0.00000000E+00  0.00000000E+00  0.00000000E+00
  0.00000000E+00  0.00000000E+00  0.00000000E+00
  0.00000000E+00  0.00000000E+00  0.00000000E+00
  0.00000000E+00  0.00000000E+00  0.00000000E+00
  0.00000000E+00  0.00000000E+00  0.00000000E+00
  0.00000000E+00  0.00000000E+00  0.00000000E+00
  0.00000000E+00  0.00000000E+00  0.00000000E+00
  0.00000000E+00  0.00000000E+00  0.00000000E+00
  0.00000000E+00  0.00000000E+00  0.00000000E+00
  0.00000000E+00  0.00000000E+00  0.00000000E+00
  0.00000000E+00  0.00000000E+00  0.00000000E+00
  0.00000000E+00  0.00000000E+00  0.00000000E+00
  0.00000000E+00  0.00000000E+00  0.00000000E+00
  0.00000000E+00  0.00000000E+00  0.00000000E+00
  0.00000000E+00  0.00000000E+00  0.00000000E+00
  0.00000000E+00  0.00000000E+00  0.00000000E+00
