POSCAR                                  
   1.00000000000000     
     9.2842500000000001    0.0000000000000000    0.0000000000000000
     0.0000000000000000   10.7205300000000001    0.0000000000000000
     0.0000000000000000    0.0000000000000000   19.4957999999999991
   C    F    Si   K 
    48     1    48     1
Selective dynamics
Direct
  0.0000000000000000  0.0000000000000000  0.0000000000000000   F   F   F
  0.1666669999999968  0.2500000000000000  0.0000000000000000   F   F   F
  0.0000000000000000  0.0000000000000000  0.3894450000000020   F   F   F
  0.1666669999999968  0.2500000000000000  0.3894450000000020   F   F   F
  0.0000000000000000  0.1666659999999993  0.1301800000000028   F   F   F
  0.1666669999999968  0.4166659999999993  0.1301800000000028   F   F   F
  0.0000000000000000  0.3333340000000007  0.2598520000000022   F   F   F
  0.1666669999999968  0.0833330000000032  0.2598520000000022   F   F   F
  0.3333330000000032  0.0000000000000000  0.0000000000000000   F   F   F
  0.5000000000000000  0.2500000000000000  0.0000000000000000   F   F   F
  0.3333330000000032  0.0000000000000000  0.3894450000000020   F   F   F
  0.5000000000000000  0.2500000000000000  0.3894450000000020   F   F   F
  0.3333330000000032  0.1666659999999993  0.1301800000000028   F   F   F
  0.5000000000000000  0.4166659999999993  0.1301800000000028   F   F   F
  0.3333330000000032  0.3333340000000007  0.2598520000000022   F   F   F
  0.5000000000000000  0.0833330000000032  0.2598520000000022   F   F   F
  0.6666669999999968  0.0000000000000000  0.0000000000000000   F   F   F
  0.8333330000000032  0.2500000000000000  0.0000000000000000   F   F   F
  0.6666669999999968  0.0000000000000000  0.3894450000000020   F   F   F
  0.8333330000000032  0.2500000000000000  0.3894450000000020   F   F   F
  0.6666669999999968  0.1666659999999993  0.1301800000000028   F   F   F
  0.8333330000000032  0.4166659999999993  0.1301800000000028   F   F   F
  0.6666669999999968  0.3333340000000007  0.2598520000000022   F   F   F
  0.8333330000000032  0.0833340000000007  0.2598520000000022   F   F   F
  0.0000000000000000  0.5000000000000000  0.0000000000000000   F   F   F
  0.1666669999999968  0.7500000000000000  0.0000000000000000   F   F   F
  0.0000000000000000  0.5000000000000000  0.3894450000000020   F   F   F
  0.1666669999999968  0.7500000000000000  0.3894450000000020   F   F   F
  0.0000000000000000  0.6666659999999993  0.1301800000000028   F   F   F
  0.1666669999999968  0.9166659999999993  0.1301800000000028   F   F   F
  0.0000000000000000  0.8333340000000007  0.2598520000000022   F   F   F
  0.1666669999999968  0.5833340000000007  0.2598520000000022   F   F   F
  0.3333330000000032  0.5000000000000000  0.0000000000000000   F   F   F
  0.5000000000000000  0.7500000000000000  0.0000000000000000   F   F   F
  0.3333330000000032  0.5000000000000000  0.3894450000000020   F   F   F
  0.5000000000000000  0.7500000000000000  0.3894450000000020   F   F   F
  0.3333330000000032  0.6666659999999993  0.1301800000000028   F   F   F
  0.5000000000000000  0.9166669999999968  0.1301800000000028   F   F   F
  0.3333330000000032  0.8333340000000007  0.2598520000000022   F   F   F
  0.5000000000000000  0.5833340000000007  0.2598520000000022   F   F   F
  0.6666669999999968  0.5000000000000000  0.0000000000000000   F   F   F
  0.8333330000000032  0.7500000000000000  0.0000000000000000   F   F   F
  0.6666669999999968  0.5000000000000000  0.3894450000000020   F   F   F
  0.8333330000000032  0.7500000000000000  0.3894450000000020   F   F   F
  0.6666669999999968  0.6666659999999993  0.1301800000000028   F   F   F
  0.8333330000000032  0.9166669999999968  0.1301800000000028   F   F   F
  0.6666669999999968  0.8333340000000007  0.2598520000000022   F   F   F
  0.8333330000000032  0.5833340000000007  0.2598520000000022   F   F   F
  0.1705224546715201  0.7346552397160337  0.5502766923148954   T   T   T
  0.0000000000000000  0.0000000000000000  0.0976240000000033   F   F   F
  0.1666669999999968  0.2500000000000000  0.0976240000000033   F   F   F
  0.9751179276926862  0.9890142887234248  0.4864878296756956   T   T   T
  0.1626024991585027  0.2548411288644274  0.4861397055916754   T   T   T
  0.0000000000000000  0.1666659999999993  0.2275319999999965   F   F   F
  0.1666669999999968  0.4166659999999993  0.2275319999999965   F   F   F
  0.0000000000000000  0.3333340000000007  0.3572070000000025   F   F   F
  0.1666669999999968  0.0833330000000032  0.3572070000000025   F   F   F
  0.3333330000000032  0.0000000000000000  0.0976240000000033   F   F   F
  0.5000000000000000  0.2500000000000000  0.0976240000000033   F   F   F
  0.3543598258304854  0.9919288270896587  0.4861679498302536   T   T   T
  0.4911172980010292  0.2515076551447493  0.4868794586301703   T   T   T
  0.3333330000000032  0.1666659999999993  0.2275319999999965   F   F   F
  0.5000000000000000  0.4166659999999993  0.2275319999999965   F   F   F
  0.3333330000000032  0.3333340000000007  0.3572070000000025   F   F   F
  0.5000000000000000  0.0833330000000032  0.3572070000000025   F   F   F
  0.6666669999999968  0.0000000000000000  0.0976240000000033   F   F   F
  0.8333330000000032  0.2500000000000000  0.0976240000000033   F   F   F
  0.6681874335583515  0.9857371376053763  0.4864114658664747   T   T   T
  0.8416450489318450  0.2572204760326215  0.4869170803082241   T   T   T
  0.6666669999999968  0.1666659999999993  0.2275319999999965   F   F   F
  0.8333330000000032  0.4166659999999993  0.2275319999999965   F   F   F
  0.6666669999999968  0.3333340000000007  0.3572070000000025   F   F   F
  0.8333330000000032  0.0833340000000007  0.3572070000000025   F   F   F
  0.0000000000000000  0.5000000000000000  0.0976240000000033   F   F   F
  0.1666669999999968  0.7500000000000000  0.0976240000000033   F   F   F
  0.9913948135623301  0.4752003874457102  0.4862773980778385   T   T   T
  0.1647663396732000  0.8271571453815625  0.4821430063869272   T   T   T
  0.0000000000000000  0.6666659999999993  0.2275319999999965   F   F   F
  0.1666669999999968  0.9166659999999993  0.2275319999999965   F   F   F
  0.0000000000000000  0.8333340000000007  0.3572070000000025   F   F   F
  0.1666669999999968  0.5833340000000007  0.3572070000000025   F   F   F
  0.3333330000000032  0.5000000000000000  0.0976240000000033   F   F   F
  0.5000000000000000  0.7500000000000000  0.0976240000000033   F   F   F
  0.3321562423064535  0.4688624261113645  0.4869976458281542   T   T   T
  0.5230838112112792  0.7654979005826519  0.4867801791398492   T   T   T
  0.3333330000000032  0.6666659999999993  0.2275319999999965   F   F   F
  0.5000000000000000  0.9166669999999968  0.2275319999999965   F   F   F
  0.3333330000000032  0.8333340000000007  0.3572070000000025   F   F   F
  0.5000000000000000  0.5833340000000007  0.3572070000000025   F   F   F
  0.6666669999999968  0.5000000000000000  0.0976240000000033   F   F   F
  0.8333330000000032  0.7500000000000000  0.0976240000000033   F   F   F
  0.6802271569915135  0.5022676676165574  0.4869261704190109   T   T   T
  0.8123990306202131  0.7578708753745147  0.4860982342362377   T   T   T
  0.6666669999999968  0.6666659999999993  0.2275319999999965   F   F   F
  0.8333330000000032  0.9166669999999968  0.2275319999999965   F   F   F
  0.6666669999999968  0.8333340000000007  0.3572070000000025   F   F   F
  0.8333330000000032  0.5833340000000007  0.3572070000000025   F   F   F
  0.3627729972257043  0.6424237647529480  0.6382387814947350   T   T   T
 
  0.00000000E+00  0.00000000E+00  0.00000000E+00
  0.00000000E+00  0.00000000E+00  0.00000000E+00
  0.00000000E+00  0.00000000E+00  0.00000000E+00
  0.00000000E+00  0.00000000E+00  0.00000000E+00
  0.00000000E+00  0.00000000E+00  0.00000000E+00
  0.00000000E+00  0.00000000E+00  0.00000000E+00
  0.00000000E+00  0.00000000E+00  0.00000000E+00
  0.00000000E+00  0.00000000E+00  0.00000000E+00
  0.00000000E+00  0.00000000E+00  0.00000000E+00
  0.00000000E+00  0.00000000E+00  0.00000000E+00
  0.00000000E+00  0.00000000E+00  0.00000000E+00
  0.00000000E+00  0.00000000E+00  0.00000000E+00
  0.00000000E+00  0.00000000E+00  0.00000000E+00
  0.00000000E+00  0.00000000E+00  0.00000000E+00
  0.00000000E+00  0.00000000E+00  0.00000000E+00
  0.00000000E+00  0.00000000E+00  0.00000000E+00
  0.00000000E+00  0.00000000E+00  0.00000000E+00
  0.00000000E+00  0.00000000E+00  0.00000000E+00
  0.00000000E+00  0.00000000E+00  0.00000000E+00
  0.00000000E+00  0.00000000E+00  0.00000000E+00
  0.00000000E+00  0.00000000E+00  0.00000000E+00
  0.00000000E+00  0.00000000E+00  0.00000000E+00
  0.00000000E+00  0.00000000E+00  0.00000000E+00
  0.00000000E+00  0.00000000E+00  0.00000000E+00
  0.00000000E+00  0.00000000E+00  0.00000000E+00
  0.00000000E+00  0.00000000E+00  0.00000000E+00
  0.00000000E+00  0.00000000E+00  0.00000000E+00
  0.00000000E+00  0.00000000E+00  0.00000000E+00
  0.00000000E+00  0.00000000E+00  0.00000000E+00
  0.00000000E+00  0.00000000E+00  0.00000000E+00
  0.00000000E+00  0.00000000E+00  0.00000000E+00
  0.00000000E+00  0.00000000E+00  0.00000000E+00
  0.00000000E+00  0.00000000E+00  0.00000000E+00
  0.00000000E+00  0.00000000E+00  0.00000000E+00
  0.00000000E+00  0.00000000E+00  0.00000000E+00
  0.00000000E+00  0.00000000E+00  0.00000000E+00
  0.00000000E+00  0.00000000E+00  0.00000000E+00
  0.00000000E+00  0.00000000E+00  0.00000000E+00
  0.00000000E+00  0.00000000E+00  0.00000000E+00
  0.00000000E+00  0.00000000E+00  0.00000000E+00
  0.00000000E+00  0.00000000E+00  0.00000000E+00
  0.00000000E+00  0.00000000E+00  0.00000000E+00
  0.00000000E+00  0.00000000E+00  0.00000000E+00
  0.00000000E+00  0.00000000E+00  0.00000000E+00
  0.00000000E+00  0.00000000E+00  0.00000000E+00
  0.00000000E+00  0.00000000E+00  0.00000000E+00
  0.00000000E+00  0.00000000E+00  0.00000000E+00
  0.00000000E+00  0.00000000E+00  0.00000000E+00
  0.00000000E+00  0.00000000E+00  0.00000000E+00
  0.00000000E+00  0.00000000E+00  0.00000000E+00
  0.00000000E+00  0.00000000E+00  0.00000000E+00
  0.00000000E+00  0.00000000E+00  0.00000000E+00
  0.00000000E+00  0.00000000E+00  0.00000000E+00
  0.00000000E+00  0.00000000E+00  0.00000000E+00
  0.00000000E+00  0.00000000E+00  0.00000000E+00
  0.00000000E+00  0.00000000E+00  0.00000000E+00
  0.00000000E+00  0.00000000E+00  0.00000000E+00
  0.00000000E+00  0.00000000E+00  0.00000000E+00
  0.00000000E+00  0.00000000E+00  0.00000000E+00
  0.00000000E+00  0.00000000E+00  0.00000000E+00
  0.00000000E+00  0.00000000E+00  0.00000000E+00
  0.00000000E+00  0.00000000E+00  0.00000000E+00
  0.00000000E+00  0.00000000E+00  0.00000000E+00
  0.00000000E+00  0.00000000E+00  0.00000000E+00
  0.00000000E+00  0.00000000E+00  0.00000000E+00
  0.00000000E+00  0.00000000E+00  0.00000000E+00
  0.00000000E+00  0.00000000E+00  0.00000000E+00
  0.00000000E+00  0.00000000E+00  0.00000000E+00
  0.00000000E+00  0.00000000E+00  0.00000000E+00
  0.00000000E+00  0.00000000E+00  0.00000000E+00
  0.00000000E+00  0.00000000E+00  0.00000000E+00
  0.00000000E+00  0.00000000E+00  0.00000000E+00
  0.00000000E+00  0.00000000E+00  0.00000000E+00
  0.00000000E+00  0.00000000E+00  0.00000000E+00
  0.00000000E+00  0.00000000E+00  0.00000000E+00
  0.00000000E+00  0.00000000E+00  0.00000000E+00
  0.00000000E+00  0.00000000E+00  0.00000000E+00
  0.00000000E+00  0.00000000E+00  0.00000000E+00
  0.00000000E+00  0.00000000E+00  0.00000000E+00
  0.00000000E+00  0.00000000E+00  0.00000000E+00
  0.00000000E+00  0.00000000E+00  0.00000000E+00
  0.00000000E+00  0.00000000E+00  0.00000000E+00
  0.00000000E+00  0.00000000E+00  0.00000000E+00
  0.00000000E+00  0.00000000E+00  0.00000000E+00
  0.00000000E+00  0.00000000E+00  0.00000000E+00
  0.00000000E+00  0.00000000E+00  0.00000000E+00
  0.00000000E+00  0.00000000E+00  0.00000000E+00
  0.00000000E+00  0.00000000E+00  0.00000000E+00
  0.00000000E+00  0.00000000E+00  0.00000000E+00
  0.00000000E+00  0.00000000E+00  0.00000000E+00
  0.00000000E+00  0.00000000E+00  0.00000000E+00
  0.00000000E+00  0.00000000E+00  0.00000000E+00
  0.00000000E+00  0.00000000E+00  0.00000000E+00
  0.00000000E+00  0.00000000E+00  0.00000000E+00
  0.00000000E+00  0.00000000E+00  0.00000000E+00
  0.00000000E+00  0.00000000E+00  0.00000000E+00
  0.00000000E+00  0.00000000E+00  0.00000000E+00
  0.00000000E+00  0.00000000E+00  0.00000000E+00
