System = SiC_Si
PREC = Accurate
EDIFF = 1E-6
EDIFFG = -1E-2
ISTART = 0
ICHARG = 2
LREAL = Auto
NSW = 0
ISIF = 2
IBRION = -1
ISMEAR = -5
SIGMA = 0.1
ENCUT = 530
ALGO = Fast
LMAXMIX = 4
AMIN = 0.01
NELM = 150
LCHARG = .F.
LWAVE = .F.
NCORE = 4
KPAR = 1
LELF = .T.
