POSCAR                                  
   1.00000000000000     
     9.2842500000000001    0.0000000000000000    0.0000000000000000
     0.0000000000000000   10.7205279999999998    0.0000000000000000
     0.0000000000000000    0.0000000000000000   19.4958010000000002
   C    Si
    48    48
Selective dynamics
Direct
  0.0000000000000000  0.0000000000000000  0.0000000000000000   F   F   F
  0.1666669999999968  0.2500000000000000  0.0000000000000000   F   F   F
  0.0000000000000000  0.0000000000000000  0.3894450000000020   F   F   F
  0.1666669999999968  0.2500000000000000  0.3894450000000020   F   F   F
  0.0000000000000000  0.1666659999999993  0.1301800000000028   F   F   F
  0.1666669999999968  0.4166659999999993  0.1301800000000028   F   F   F
  0.0000000000000000  0.3333340000000007  0.2598520000000022   F   F   F
  0.1666669999999968  0.0833330000000032  0.2598520000000022   F   F   F
  0.3333330000000032  0.0000000000000000  0.0000000000000000   F   F   F
  0.5000000000000000  0.2500000000000000  0.0000000000000000   F   F   F
  0.3333330000000032  0.0000000000000000  0.3894450000000020   F   F   F
  0.5000000000000000  0.2500000000000000  0.3894450000000020   F   F   F
  0.3333330000000032  0.1666659999999993  0.1301800000000028   F   F   F
  0.5000000000000000  0.4166659999999993  0.1301800000000028   F   F   F
  0.3333330000000032  0.3333340000000007  0.2598520000000022   F   F   F
  0.5000000000000000  0.0833330000000032  0.2598520000000022   F   F   F
  0.6666669999999968  0.0000000000000000  0.0000000000000000   F   F   F
  0.8333330000000032  0.2500000000000000  0.0000000000000000   F   F   F
  0.6666669999999968  0.0000000000000000  0.3894450000000020   F   F   F
  0.8333330000000032  0.2500000000000000  0.3894450000000020   F   F   F
  0.6666669999999968  0.1666659999999993  0.1301800000000028   F   F   F
  0.8333330000000032  0.4166659999999993  0.1301800000000028   F   F   F
  0.6666669999999968  0.3333340000000007  0.2598520000000022   F   F   F
  0.8333330000000032  0.0833340000000007  0.2598520000000022   F   F   F
  0.0000000000000000  0.5000000000000000  0.0000000000000000   F   F   F
  0.1666669999999968  0.7500000000000000  0.0000000000000000   F   F   F
  0.0000000000000000  0.5000000000000000  0.3894450000000020   F   F   F
  0.1666669999999968  0.7500000000000000  0.3894450000000020   F   F   F
  0.0000000000000000  0.6666659999999993  0.1301800000000028   F   F   F
  0.1666669999999968  0.9166659999999993  0.1301800000000028   F   F   F
  0.0000000000000000  0.8333340000000007  0.2598520000000022   F   F   F
  0.1666669999999968  0.5833340000000007  0.2598520000000022   F   F   F
  0.3333330000000032  0.5000000000000000  0.0000000000000000   F   F   F
  0.5000000000000000  0.7500000000000000  0.0000000000000000   F   F   F
  0.3333330000000032  0.5000000000000000  0.3894450000000020   F   F   F
  0.5000000000000000  0.7500000000000000  0.3894450000000020   F   F   F
  0.3333330000000032  0.6666659999999993  0.1301800000000028   F   F   F
  0.5000000000000000  0.9166669999999968  0.1301800000000028   F   F   F
  0.3333330000000032  0.8333340000000007  0.2598520000000022   F   F   F
  0.5000000000000000  0.5833340000000007  0.2598520000000022   F   F   F
  0.6666669999999968  0.5000000000000000  0.0000000000000000   F   F   F
  0.8333330000000032  0.7500000000000000  0.0000000000000000   F   F   F
  0.6666669999999968  0.5000000000000000  0.3894450000000020   F   F   F
  0.8333330000000032  0.7500000000000000  0.3894450000000020   F   F   F
  0.6666669999999968  0.6666659999999993  0.1301800000000028   F   F   F
  0.8333330000000032  0.9166669999999968  0.1301800000000028   F   F   F
  0.6666669999999968  0.8333340000000007  0.2598520000000022   F   F   F
  0.8333330000000032  0.5833340000000007  0.2598520000000022   F   F   F
  0.0000000000000000  0.0000000000000000  0.0976240000000033   F   F   F
  0.1666669999999968  0.2500000000000000  0.0976240000000033   F   F   F
 -0.0000000000000000  0.0000515663503397  0.4867572191881764   T   T   T
  0.1666669999999968  0.2500515663503396  0.4867572191881764   T   T   T
  0.0000000000000000  0.1666659999999993  0.2275319999999965   F   F   F
  0.1666669999999968  0.4166659999999993  0.2275319999999965   F   F   F
  0.0000000000000000  0.3333340000000007  0.3572070000000025   F   F   F
  0.1666669999999968  0.0833330000000032  0.3572070000000025   F   F   F
  0.3333330000000032  0.0000000000000000  0.0976240000000033   F   F   F
  0.5000000000000000  0.2500000000000000  0.0976240000000033   F   F   F
  0.3333330000000032  0.0000515663503397  0.4867572191881764   T   T   T
  0.5000000000000000  0.2500515663503396  0.4867572191881764   T   T   T
  0.3333330000000032  0.1666659999999993  0.2275319999999965   F   F   F
  0.5000000000000000  0.4166659999999993  0.2275319999999965   F   F   F
  0.3333330000000032  0.3333340000000007  0.3572070000000025   F   F   F
  0.5000000000000000  0.0833330000000032  0.3572070000000025   F   F   F
  0.6666669999999968  0.0000000000000000  0.0976240000000033   F   F   F
  0.8333330000000032  0.2500000000000000  0.0976240000000033   F   F   F
  0.6666669999999968  0.0000515663503397  0.4867572191881764   T   T   T
  0.8333330000000032  0.2500515663503396  0.4867572191881764   T   T   T
  0.6666669999999968  0.1666659999999993  0.2275319999999965   F   F   F
  0.8333330000000032  0.4166659999999993  0.2275319999999965   F   F   F
  0.6666669999999968  0.3333340000000007  0.3572070000000025   F   F   F
  0.8333330000000032  0.0833340000000007  0.3572070000000025   F   F   F
  0.0000000000000000  0.5000000000000000  0.0976240000000033   F   F   F
  0.1666669999999968  0.7500000000000000  0.0976240000000033   F   F   F
 -0.0000000000000000  0.5000515663503398  0.4867572191881764   T   T   T
  0.1666669999999968  0.7500515663503398  0.4867572191881764   T   T   T
  0.0000000000000000  0.6666659999999993  0.2275319999999965   F   F   F
  0.1666669999999968  0.9166659999999993  0.2275319999999965   F   F   F
  0.0000000000000000  0.8333340000000007  0.3572070000000025   F   F   F
  0.1666669999999968  0.5833340000000007  0.3572070000000025   F   F   F
  0.3333330000000032  0.5000000000000000  0.0976240000000033   F   F   F
  0.5000000000000000  0.7500000000000000  0.0976240000000033   F   F   F
  0.3333330000000032  0.5000515663503398  0.4867572191881764   T   T   T
  0.5000000000000000  0.7500515663503398  0.4867572191881764   T   T   T
  0.3333330000000032  0.6666659999999993  0.2275319999999965   F   F   F
  0.5000000000000000  0.9166669999999968  0.2275319999999965   F   F   F
  0.3333330000000032  0.8333340000000007  0.3572070000000025   F   F   F
  0.5000000000000000  0.5833340000000007  0.3572070000000025   F   F   F
  0.6666669999999968  0.5000000000000000  0.0976240000000033   F   F   F
  0.8333330000000032  0.7500000000000000  0.0976240000000033   F   F   F
  0.6666669999999968  0.5000515663503398  0.4867572191881764   T   T   T
  0.8333330000000032  0.7500515663503398  0.4867572191881764   T   T   T
  0.6666669999999968  0.6666659999999993  0.2275319999999965   F   F   F
  0.8333330000000032  0.9166669999999968  0.2275319999999965   F   F   F
  0.6666669999999968  0.8333340000000007  0.3572070000000025   F   F   F
  0.8333330000000032  0.5833340000000007  0.3572070000000025   F   F   F
 
  0.00000000E+00  0.00000000E+00  0.00000000E+00
  0.00000000E+00  0.00000000E+00  0.00000000E+00
  0.00000000E+00  0.00000000E+00  0.00000000E+00
  0.00000000E+00  0.00000000E+00  0.00000000E+00
  0.00000000E+00  0.00000000E+00  0.00000000E+00
  0.00000000E+00  0.00000000E+00  0.00000000E+00
  0.00000000E+00  0.00000000E+00  0.00000000E+00
  0.00000000E+00  0.00000000E+00  0.00000000E+00
  0.00000000E+00  0.00000000E+00  0.00000000E+00
  0.00000000E+00  0.00000000E+00  0.00000000E+00
  0.00000000E+00  0.00000000E+00  0.00000000E+00
  0.00000000E+00  0.00000000E+00  0.00000000E+00
  0.00000000E+00  0.00000000E+00  0.00000000E+00
  0.00000000E+00  0.00000000E+00  0.00000000E+00
  0.00000000E+00  0.00000000E+00  0.00000000E+00
  0.00000000E+00  0.00000000E+00  0.00000000E+00
  0.00000000E+00  0.00000000E+00  0.00000000E+00
  0.00000000E+00  0.00000000E+00  0.00000000E+00
  0.00000000E+00  0.00000000E+00  0.00000000E+00
  0.00000000E+00  0.00000000E+00  0.00000000E+00
  0.00000000E+00  0.00000000E+00  0.00000000E+00
  0.00000000E+00  0.00000000E+00  0.00000000E+00
  0.00000000E+00  0.00000000E+00  0.00000000E+00
  0.00000000E+00  0.00000000E+00  0.00000000E+00
  0.00000000E+00  0.00000000E+00  0.00000000E+00
  0.00000000E+00  0.00000000E+00  0.00000000E+00
  0.00000000E+00  0.00000000E+00  0.00000000E+00
  0.00000000E+00  0.00000000E+00  0.00000000E+00
  0.00000000E+00  0.00000000E+00  0.00000000E+00
  0.00000000E+00  0.00000000E+00  0.00000000E+00
  0.00000000E+00  0.00000000E+00  0.00000000E+00
  0.00000000E+00  0.00000000E+00  0.00000000E+00
  0.00000000E+00  0.00000000E+00  0.00000000E+00
  0.00000000E+00  0.00000000E+00  0.00000000E+00
  0.00000000E+00  0.00000000E+00  0.00000000E+00
  0.00000000E+00  0.00000000E+00  0.00000000E+00
  0.00000000E+00  0.00000000E+00  0.00000000E+00
  0.00000000E+00  0.00000000E+00  0.00000000E+00
  0.00000000E+00  0.00000000E+00  0.00000000E+00
  0.00000000E+00  0.00000000E+00  0.00000000E+00
  0.00000000E+00  0.00000000E+00  0.00000000E+00
  0.00000000E+00  0.00000000E+00  0.00000000E+00
  0.00000000E+00  0.00000000E+00  0.00000000E+00
  0.00000000E+00  0.00000000E+00  0.00000000E+00
  0.00000000E+00  0.00000000E+00  0.00000000E+00
  0.00000000E+00  0.00000000E+00  0.00000000E+00
  0.00000000E+00  0.00000000E+00  0.00000000E+00
  0.00000000E+00  0.00000000E+00  0.00000000E+00
  0.00000000E+00  0.00000000E+00  0.00000000E+00
  0.00000000E+00  0.00000000E+00  0.00000000E+00
  0.00000000E+00  0.00000000E+00  0.00000000E+00
  0.00000000E+00  0.00000000E+00  0.00000000E+00
  0.00000000E+00  0.00000000E+00  0.00000000E+00
  0.00000000E+00  0.00000000E+00  0.00000000E+00
  0.00000000E+00  0.00000000E+00  0.00000000E+00
  0.00000000E+00  0.00000000E+00  0.00000000E+00
  0.00000000E+00  0.00000000E+00  0.00000000E+00
  0.00000000E+00  0.00000000E+00  0.00000000E+00
  0.00000000E+00  0.00000000E+00  0.00000000E+00
  0.00000000E+00  0.00000000E+00  0.00000000E+00
  0.00000000E+00  0.00000000E+00  0.00000000E+00
  0.00000000E+00  0.00000000E+00  0.00000000E+00
  0.00000000E+00  0.00000000E+00  0.00000000E+00
  0.00000000E+00  0.00000000E+00  0.00000000E+00
  0.00000000E+00  0.00000000E+00  0.00000000E+00
  0.00000000E+00  0.00000000E+00  0.00000000E+00
  0.00000000E+00  0.00000000E+00  0.00000000E+00
  0.00000000E+00  0.00000000E+00  0.00000000E+00
  0.00000000E+00  0.00000000E+00  0.00000000E+00
  0.00000000E+00  0.00000000E+00  0.00000000E+00
  0.00000000E+00  0.00000000E+00  0.00000000E+00
  0.00000000E+00  0.00000000E+00  0.00000000E+00
  0.00000000E+00  0.00000000E+00  0.00000000E+00
  0.00000000E+00  0.00000000E+00  0.00000000E+00
  0.00000000E+00  0.00000000E+00  0.00000000E+00
  0.00000000E+00  0.00000000E+00  0.00000000E+00
  0.00000000E+00  0.00000000E+00  0.00000000E+00
  0.00000000E+00  0.00000000E+00  0.00000000E+00
  0.00000000E+00  0.00000000E+00  0.00000000E+00
  0.00000000E+00  0.00000000E+00  0.00000000E+00
  0.00000000E+00  0.00000000E+00  0.00000000E+00
  0.00000000E+00  0.00000000E+00  0.00000000E+00
  0.00000000E+00  0.00000000E+00  0.00000000E+00
  0.00000000E+00  0.00000000E+00  0.00000000E+00
  0.00000000E+00  0.00000000E+00  0.00000000E+00
  0.00000000E+00  0.00000000E+00  0.00000000E+00
  0.00000000E+00  0.00000000E+00  0.00000000E+00
  0.00000000E+00  0.00000000E+00  0.00000000E+00
  0.00000000E+00  0.00000000E+00  0.00000000E+00
  0.00000000E+00  0.00000000E+00  0.00000000E+00
  0.00000000E+00  0.00000000E+00  0.00000000E+00
  0.00000000E+00  0.00000000E+00  0.00000000E+00
  0.00000000E+00  0.00000000E+00  0.00000000E+00
  0.00000000E+00  0.00000000E+00  0.00000000E+00
  0.00000000E+00  0.00000000E+00  0.00000000E+00
  0.00000000E+00  0.00000000E+00  0.00000000E+00
