POSCAR 
1.0 
9.284250 0.000000 0.000000 
0.000000 10.720528 0.000000 
0.000000 0.000000 19.495801 
C Si 
48 48 
Selective Dynamics
Direct 
-0.000000 -0.000000 0.000000 F F F 
0.166667 0.250000 0.000000 F F F 
-0.000000 -0.000000 0.389445 F F F 
0.166667 0.250000 0.389445 F F F 
0.000000 0.166666 0.130180 F F F 
0.166667 0.416666 0.130180 F F F 
0.000000 0.333334 0.259852 F F F 
0.166667 0.083333 0.259852 F F F 
0.333333 -0.000000 0.000000 F F F 
0.500000 0.250000 0.000000 F F F 
0.333333 -0.000000 0.389445 F F F 
0.500000 0.250000 0.389445 F F F 
0.333333 0.166666 0.130180 F F F 
0.500000 0.416666 0.130180 F F F 
0.333333 0.333334 0.259852 F F F 
0.500000 0.083333 0.259852 F F F 
0.666667 -0.000000 0.000000 F F F 
0.833333 0.250000 0.000000 F F F 
0.666667 -0.000000 0.389445 F F F 
0.833333 0.250000 0.389445 F F F 
0.666667 0.166666 0.130180 F F F 
0.833333 0.416666 0.130180 F F F 
0.666667 0.333334 0.259852 F F F 
0.833333 0.083334 0.259852 F F F 
0.000000 0.500000 0.000000 F F F 
0.166667 0.750000 0.000000 F F F 
0.000000 0.500000 0.389445 F F F 
0.166667 0.750000 0.389445 F F F 
0.000000 0.666666 0.130180 F F F 
0.166667 0.916666 0.130180 F F F 
0.000000 0.833334 0.259852 F F F 
0.166667 0.583334 0.259852 F F F 
0.333333 0.500000 0.000000 F F F 
0.500000 0.750000 0.000000 F F F 
0.333333 0.500000 0.389445 F F F 
0.500000 0.750000 0.389445 F F F 
0.333333 0.666666 0.130180 F F F 
0.500000 0.916667 0.130180 F F F 
0.333333 0.833334 0.259852 F F F 
0.500000 0.583334 0.259852 F F F 
0.666667 0.500000 0.000000 F F F 
0.833333 0.750000 0.000000 F F F 
0.666667 0.500000 0.389445 F F F 
0.833333 0.750000 0.389445 F F F 
0.666667 0.666666 0.130180 F F F 
0.833333 0.916667 0.130180 F F F 
0.666667 0.833334 0.259852 F F F 
0.833333 0.583334 0.259852 F F F 
-0.000000 -0.000000 0.097624 F F F 
0.166667 0.250000 0.097624 F F F 
-0.000000 -0.000000 0.487069 T T T 
0.166667 0.250000 0.487069 T T T 
0.000000 0.166666 0.227532 F F F 
0.166667 0.416666 0.227532 F F F 
0.000000 0.333334 0.357207 F F F 
0.166667 0.083333 0.357207 F F F 
0.333333 -0.000000 0.097624 F F F 
0.500000 0.250000 0.097624 F F F 
0.333333 -0.000000 0.487069 T T T 
0.500000 0.250000 0.487069 T T T 
0.333333 0.166666 0.227532 F F F 
0.500000 0.416666 0.227532 F F F 
0.333333 0.333334 0.357207 F F F 
0.500000 0.083333 0.357207 F F F 
0.666667 -0.000000 0.097624 F F F 
0.833333 0.250000 0.097624 F F F 
0.666667 -0.000000 0.487069 T T T 
0.833333 0.250000 0.487069 T T T 
0.666667 0.166666 0.227532 F F F 
0.833333 0.416666 0.227532 F F F 
0.666667 0.333334 0.357207 F F F 
0.833333 0.083334 0.357207 F F F 
0.000000 0.500000 0.097624 F F F 
0.166667 0.750000 0.097624 F F F 
0.000000 0.500000 0.487069 T T T 
0.166667 0.750000 0.487069 T T T 
0.000000 0.666666 0.227532 F F F 
0.166667 0.916666 0.227532 F F F 
0.000000 0.833334 0.357207 F F F 
0.166667 0.583334 0.357207 F F F 
0.333333 0.500000 0.097624 F F F 
0.500000 0.750000 0.097624 F F F 
0.333333 0.500000 0.487069 T T T 
0.500000 0.750000 0.487069 T T T 
0.333333 0.666666 0.227532 F F F 
0.500000 0.916667 0.227532 F F F 
0.333333 0.833334 0.357207 F F F 
0.500000 0.583334 0.357207 F F F 
0.666667 0.500000 0.097624 F F F 
0.833333 0.750000 0.097624 F F F 
0.666667 0.500000 0.487069 T T T 
0.833333 0.750000 0.487069 T T T 
0.666667 0.666666 0.227532 F F F 
0.833333 0.916667 0.227532 F F F 
0.666667 0.833334 0.357207 F F F 
0.833333 0.583334 0.357207 F F F 
