SCAR                                    
   1.00000000000000     
     9.6149020000000007    0.0000000000000000    0.0000000000000000
     0.0000000000000000    8.3267489999999995    0.0000000000000000
     0.0000000000000000    0.0000000000000000   21.5605890000000002
   O    F    Al   K 
    48     1    24     1
Selective dynamics
Direct
  0.1734560000000016  0.9864210000000000  0.0000000000000000   F   F   F
  0.4234560000000016  0.4864210000000000  0.0000000000000000   F   F   F
  0.0969120000000032  0.5000000000000000  0.1014290000000031   F   F   F
  0.3469130000000007  0.0000000000000000  0.1014290000000031   F   F   F
  0.1530879999999968  0.3333330000000032  0.0000000000000000   F   F   F
  0.4030879999999968  0.8333330000000032  0.0000000000000000   F   F   F
  0.1734560000000016  0.6802459999999968  0.0000000000000000   F   F   F
  0.4234560000000016  0.1802449999999993  0.0000000000000000   F   F   F
  0.0765439999999984  0.1530869999999993  0.1014290000000031   F   F   F
  0.3265439999999984  0.6530869999999993  0.1014290000000031   F   F   F
  0.0765439999999984  0.8469130000000007  0.1014290000000031   F   F   F
  0.3265439999999984  0.3469130000000007  0.1014290000000031   F   F   F
  0.1734560000000016  0.3197550000000007  0.2028579999999991   F   F   F
  0.4234560000000016  0.8197550000000007  0.2028579999999991   F   F   F
  0.1118441227028750  0.8351110900829125  0.3050983340147371   T   T   T
  0.3714588466759442  0.2896247946222792  0.3030263541066489   T   T   T
  0.1530869999999993  0.6666669999999968  0.2028579999999991   F   F   F
  0.4030879999999968  0.1666669999999968  0.2028579999999991   F   F   F
  0.1734560000000016  0.0135799999999975  0.2028579999999991   F   F   F
  0.4234560000000016  0.5135799999999975  0.2028579999999991   F   F   F
  0.0649118552441324  0.4830833812534924  0.3006010623592617   T   T   T
  0.0453670768587634  0.9815045245247072  0.3243820422797624   T   T   T
  0.1505582370693124  0.0962773058785505  0.3304835654932799   T   T   T
  0.3426173176515778  0.7218495884968882  0.3024352166118586   T   T   T
  0.6734560000000016  0.9864210000000000  0.0000000000000000   F   F   F
  0.9234560000000016  0.4864210000000000  0.0000000000000000   F   F   F
  0.5969130000000007  0.5000000000000000  0.1014290000000031   F   F   F
  0.8469130000000007  0.0000000000000000  0.1014290000000031   F   F   F
  0.6530879999999968  0.3333330000000032  0.0000000000000000   F   F   F
  0.9030879999999968  0.8333330000000032  0.0000000000000000   F   F   F
  0.6734560000000016  0.6802449999999993  0.0000000000000000   F   F   F
  0.9234560000000016  0.1802449999999993  0.0000000000000000   F   F   F
  0.5765439999999984  0.1530869999999993  0.1014290000000031   F   F   F
  0.8265439999999984  0.6530869999999993  0.1014290000000031   F   F   F
  0.5765439999999984  0.8469130000000007  0.1014290000000031   F   F   F
  0.8265439999999984  0.3469130000000007  0.1014290000000031   F   F   F
  0.6734560000000016  0.3197550000000007  0.2028579999999991   F   F   F
  0.9234560000000016  0.8197550000000007  0.2028579999999991   F   F   F
  0.6085052868682574  0.8381518113933043  0.3043737080387535   T   T   T
  0.8869765405387812  0.2610897559979886  0.3046523515933435   T   T   T
  0.6530879999999968  0.6666669999999968  0.2028579999999991   F   F   F
  0.9030879999999968  0.1666669999999968  0.2028579999999991   F   F   F
  0.6734560000000016  0.0135799999999975  0.2028579999999991   F   F   F
  0.9234560000000016  0.5135790000000000  0.2028579999999991   F   F   F
  0.5948642002641242  0.4899772681163297  0.2993586714936103   T   T   T
  0.5324832646826250  0.9835362863219689  0.3188195138173804   T   T   T
  0.6273090929598860  0.1102924626912473  0.3249176098455400   T   T   T
  0.8484372075906601  0.7471688363162711  0.3029020832806774   T   T   T
  0.5590248086708010  0.4761191011336908  0.3651089348673561   T   T   T
  0.0000000000000000  0.6666669999999968  0.1407060000000016   F   F   F
  0.2500000000000000  0.1666669999999968  0.1407060000000016   F   F   F
  0.0000000000000000  0.3333330000000032  0.0621519999999975   F   F   F
  0.2500000000000000  0.8333330000000032  0.0621519999999975   F   F   F
  0.0000000000000000  0.0000000000000000  0.0392769999999985   F   F   F
  0.2500000000000000  0.5000000000000000  0.0392769999999985   F   F   F
  0.0000000000000000  0.6666669999999968  0.2650089999999992   F   F   F
  0.2500000000000000  0.1666669999999968  0.2650089999999992   F   F   F
  0.0000000000000000  0.3333330000000032  0.2421340000000001   F   F   F
  0.2500000000000000  0.8333330000000032  0.2421340000000001   F   F   F
  0.0000000000000000  0.0000000000000000  0.1635810000000006   F   F   F
  0.2500000000000000  0.5000000000000000  0.1635810000000006   F   F   F
  0.5000000000000000  0.6666669999999968  0.1407060000000016   F   F   F
  0.7500000000000000  0.1666669999999968  0.1407060000000016   F   F   F
  0.5000000000000000  0.3333330000000032  0.0621519999999975   F   F   F
  0.7500000000000000  0.8333330000000032  0.0621519999999975   F   F   F
  0.5000000000000000  0.0000000000000000  0.0392769999999985   F   F   F
  0.7500000000000000  0.5000000000000000  0.0392769999999985   F   F   F
  0.5000000000000000  0.6666669999999968  0.2650089999999992   F   F   F
  0.7500000000000000  0.1666669999999968  0.2650089999999992   F   F   F
  0.5000000000000000  0.3333330000000032  0.2421340000000001   F   F   F
  0.7500000000000000  0.8333330000000032  0.2421340000000001   F   F   F
  0.5000000000000000  0.0000000000000000  0.1635810000000006   F   F   F
  0.7500000000000000  0.5000000000000000  0.1635810000000006   F   F   F
  0.2620255618846284  0.4942951480653232  0.3856978285251891   T   T   T
 
  0.00000000E+00  0.00000000E+00  0.00000000E+00
  0.00000000E+00  0.00000000E+00  0.00000000E+00
  0.00000000E+00  0.00000000E+00  0.00000000E+00
  0.00000000E+00  0.00000000E+00  0.00000000E+00
  0.00000000E+00  0.00000000E+00  0.00000000E+00
  0.00000000E+00  0.00000000E+00  0.00000000E+00
  0.00000000E+00  0.00000000E+00  0.00000000E+00
  0.00000000E+00  0.00000000E+00  0.00000000E+00
  0.00000000E+00  0.00000000E+00  0.00000000E+00
  0.00000000E+00  0.00000000E+00  0.00000000E+00
  0.00000000E+00  0.00000000E+00  0.00000000E+00
  0.00000000E+00  0.00000000E+00  0.00000000E+00
  0.00000000E+00  0.00000000E+00  0.00000000E+00
  0.00000000E+00  0.00000000E+00  0.00000000E+00
  0.00000000E+00  0.00000000E+00  0.00000000E+00
  0.00000000E+00  0.00000000E+00  0.00000000E+00
  0.00000000E+00  0.00000000E+00  0.00000000E+00
  0.00000000E+00  0.00000000E+00  0.00000000E+00
  0.00000000E+00  0.00000000E+00  0.00000000E+00
  0.00000000E+00  0.00000000E+00  0.00000000E+00
  0.00000000E+00  0.00000000E+00  0.00000000E+00
  0.00000000E+00  0.00000000E+00  0.00000000E+00
  0.00000000E+00  0.00000000E+00  0.00000000E+00
  0.00000000E+00  0.00000000E+00  0.00000000E+00
  0.00000000E+00  0.00000000E+00  0.00000000E+00
  0.00000000E+00  0.00000000E+00  0.00000000E+00
  0.00000000E+00  0.00000000E+00  0.00000000E+00
  0.00000000E+00  0.00000000E+00  0.00000000E+00
  0.00000000E+00  0.00000000E+00  0.00000000E+00
  0.00000000E+00  0.00000000E+00  0.00000000E+00
  0.00000000E+00  0.00000000E+00  0.00000000E+00
  0.00000000E+00  0.00000000E+00  0.00000000E+00
  0.00000000E+00  0.00000000E+00  0.00000000E+00
  0.00000000E+00  0.00000000E+00  0.00000000E+00
  0.00000000E+00  0.00000000E+00  0.00000000E+00
  0.00000000E+00  0.00000000E+00  0.00000000E+00
  0.00000000E+00  0.00000000E+00  0.00000000E+00
  0.00000000E+00  0.00000000E+00  0.00000000E+00
  0.00000000E+00  0.00000000E+00  0.00000000E+00
  0.00000000E+00  0.00000000E+00  0.00000000E+00
  0.00000000E+00  0.00000000E+00  0.00000000E+00
  0.00000000E+00  0.00000000E+00  0.00000000E+00
  0.00000000E+00  0.00000000E+00  0.00000000E+00
  0.00000000E+00  0.00000000E+00  0.00000000E+00
  0.00000000E+00  0.00000000E+00  0.00000000E+00
  0.00000000E+00  0.00000000E+00  0.00000000E+00
  0.00000000E+00  0.00000000E+00  0.00000000E+00
  0.00000000E+00  0.00000000E+00  0.00000000E+00
  0.00000000E+00  0.00000000E+00  0.00000000E+00
  0.00000000E+00  0.00000000E+00  0.00000000E+00
  0.00000000E+00  0.00000000E+00  0.00000000E+00
  0.00000000E+00  0.00000000E+00  0.00000000E+00
  0.00000000E+00  0.00000000E+00  0.00000000E+00
  0.00000000E+00  0.00000000E+00  0.00000000E+00
  0.00000000E+00  0.00000000E+00  0.00000000E+00
  0.00000000E+00  0.00000000E+00  0.00000000E+00
  0.00000000E+00  0.00000000E+00  0.00000000E+00
  0.00000000E+00  0.00000000E+00  0.00000000E+00
  0.00000000E+00  0.00000000E+00  0.00000000E+00
  0.00000000E+00  0.00000000E+00  0.00000000E+00
  0.00000000E+00  0.00000000E+00  0.00000000E+00
  0.00000000E+00  0.00000000E+00  0.00000000E+00
  0.00000000E+00  0.00000000E+00  0.00000000E+00
  0.00000000E+00  0.00000000E+00  0.00000000E+00
  0.00000000E+00  0.00000000E+00  0.00000000E+00
  0.00000000E+00  0.00000000E+00  0.00000000E+00
  0.00000000E+00  0.00000000E+00  0.00000000E+00
  0.00000000E+00  0.00000000E+00  0.00000000E+00
  0.00000000E+00  0.00000000E+00  0.00000000E+00
  0.00000000E+00  0.00000000E+00  0.00000000E+00
  0.00000000E+00  0.00000000E+00  0.00000000E+00
  0.00000000E+00  0.00000000E+00  0.00000000E+00
  0.00000000E+00  0.00000000E+00  0.00000000E+00
  0.00000000E+00  0.00000000E+00  0.00000000E+00
