POSCAR 
1.0 
9.284250 0.000000 0.000000 
0.000000 10.720528 0.000000 
0.000000 0.000000 19.495802 
C F Si K 
48 1 48 1 
Selective Dynamics
Direct 
0.000000 0.000000 0.000000 F F F 
0.166667 0.250000 0.000000 F F F 
0.000000 0.000000 0.389445 F F F 
0.166667 0.250000 0.389445 F F F 
0.000000 0.166666 0.130180 F F F 
0.166667 0.416666 0.130180 F F F 
0.000000 0.333334 0.259852 F F F 
0.166667 0.083333 0.259852 F F F 
0.333333 0.000000 0.000000 F F F 
0.500000 0.250000 0.000000 F F F 
0.333333 0.000000 0.389445 F F F 
0.500000 0.250000 0.389445 F F F 
0.333333 0.166666 0.130180 F F F 
0.500000 0.416666 0.130180 F F F 
0.333333 0.333334 0.259852 F F F 
0.500000 0.083333 0.259852 F F F 
0.666667 0.000000 0.000000 F F F 
0.833333 0.250000 0.000000 F F F 
0.666667 0.000000 0.389445 F F F 
0.833333 0.250000 0.389445 F F F 
0.666667 0.166666 0.130180 F F F 
0.833333 0.416666 0.130180 F F F 
0.666667 0.333334 0.259852 F F F 
0.833333 0.083334 0.259852 F F F 
0.000000 0.500000 0.000000 F F F 
0.166667 0.750000 0.000000 F F F 
0.000000 0.500000 0.389445 F F F 
0.166667 0.750000 0.389445 F F F 
0.000000 0.666666 0.130180 F F F 
0.166667 0.916666 0.130180 F F F 
0.000000 0.833334 0.259852 F F F 
0.166667 0.583334 0.259852 F F F 
0.333333 0.500000 0.000000 F F F 
0.500000 0.750000 0.000000 F F F 
0.333333 0.500000 0.389445 F F F 
0.500000 0.750000 0.389445 F F F 
0.333333 0.666666 0.130180 F F F 
0.500000 0.916667 0.130180 F F F 
0.333333 0.833334 0.259852 F F F 
0.500000 0.583334 0.259852 F F F 
0.666667 0.500000 0.000000 F F F 
0.833333 0.750000 0.000000 F F F 
0.666667 0.500000 0.389445 F F F 
0.833333 0.750000 0.389445 F F F 
0.666667 0.666666 0.130180 F F F 
0.833333 0.916667 0.130180 F F F 
0.666667 0.833334 0.259852 F F F 
0.833333 0.583334 0.259852 F F F 
0.558349 0.501694 0.597100 T T T 
0.000000 0.000000 0.097624 F F F 
0.166667 0.250000 0.097624 F F F 
0.000000 0.000052 0.486757 T T T 
0.166667 0.250052 0.486757 T T T 
0.000000 0.166666 0.227532 F F F 
0.166667 0.416666 0.227532 F F F 
0.000000 0.333334 0.357207 F F F 
0.166667 0.083333 0.357207 F F F 
0.333333 0.000000 0.097624 F F F 
0.500000 0.250000 0.097624 F F F 
0.333333 0.000052 0.486757 T T T 
0.500000 0.250052 0.486757 T T T 
0.333333 0.166666 0.227532 F F F 
0.500000 0.416666 0.227532 F F F 
0.333333 0.333334 0.357207 F F F 
0.500000 0.083333 0.357207 F F F 
0.666667 0.000000 0.097624 F F F 
0.833333 0.250000 0.097624 F F F 
0.666667 0.000052 0.486757 T T T 
0.833333 0.250052 0.486757 T T T 
0.666667 0.166666 0.227532 F F F 
0.833333 0.416666 0.227532 F F F 
0.666667 0.333334 0.357207 F F F 
0.833333 0.083334 0.357207 F F F 
0.000000 0.500000 0.097624 F F F 
0.166667 0.750000 0.097624 F F F 
0.000000 0.500052 0.486757 T T T 
0.166667 0.750052 0.486757 T T T 
0.000000 0.666666 0.227532 F F F 
0.166667 0.916666 0.227532 F F F 
0.000000 0.833334 0.357207 F F F 
0.166667 0.583334 0.357207 F F F 
0.333333 0.500000 0.097624 F F F 
0.500000 0.750000 0.097624 F F F 
0.333333 0.500052 0.486757 T T T 
0.500000 0.750052 0.486757 T T T 
0.333333 0.666666 0.227532 F F F 
0.500000 0.916667 0.227532 F F F 
0.333333 0.833334 0.357207 F F F 
0.500000 0.583334 0.357207 F F F 
0.666667 0.500000 0.097624 F F F 
0.833333 0.750000 0.097624 F F F 
0.666667 0.500052 0.486757 T T T 
0.833333 0.750052 0.486757 T T T 
0.666667 0.666666 0.227532 F F F 
0.833333 0.916667 0.227532 F F F 
0.666667 0.833334 0.357207 F F F 
0.833333 0.583334 0.357207 F F F 
0.457462 0.585599 0.587488 T T T 
