POSCAR 
1.0 
9.284262 0.000000 0.000000 
0.000000 10.720542 0.000000 
0.000000 0.000000 18.227242 
C F Si K 
48 1 48 1 
Selective Dynamics
Direct 
0.000000 0.000000 0.312130 F F F 
0.166667 0.250000 0.312130 F F F 
0.000000 0.333358 0.438312 T T T 
0.166667 0.083358 0.438312 T T T 
0.000000 0.166666 0.034822 F F F 
0.166667 0.416666 0.034822 F F F 
0.000000 0.333333 0.173518 F F F 
0.166667 0.083333 0.173518 F F F 
0.333333 0.000000 0.312130 F F F 
0.500000 0.250000 0.312130 F F F 
0.333333 0.333359 0.438312 T T T 
0.500000 0.083358 0.438312 T T T 
0.333333 0.166666 0.034822 F F F 
0.500000 0.416666 0.034822 F F F 
0.333333 0.333334 0.173518 F F F 
0.500000 0.083333 0.173518 F F F 
0.666667 0.000000 0.312130 F F F 
0.833333 0.250000 0.312130 F F F 
0.666667 0.333358 0.438312 T T T 
0.833333 0.083358 0.438312 T T T 
0.666667 0.166666 0.034822 F F F 
0.833333 0.416666 0.034822 F F F 
0.666667 0.333333 0.173518 F F F 
0.833333 0.083333 0.173518 F F F 
0.000000 0.500000 0.312130 F F F 
0.166667 0.750000 0.312130 F F F 
0.000000 0.833358 0.438312 T T T 
0.166667 0.583358 0.438312 T T T 
0.000000 0.666666 0.034822 F F F 
0.166667 0.916666 0.034822 F F F 
0.000000 0.833333 0.173518 F F F 
0.166667 0.583333 0.173518 F F F 
0.333333 0.500000 0.312130 F F F 
0.500000 0.750000 0.312130 F F F 
0.333333 0.833358 0.438312 T T T 
0.500000 0.583358 0.438312 T T T 
0.333333 0.666666 0.034822 F F F 
0.500000 0.916666 0.034822 F F F 
0.333333 0.833333 0.173518 F F F 
0.500000 0.583333 0.173518 F F F 
0.666667 0.500000 0.312130 F F F 
0.833333 0.750000 0.312130 F F F 
0.666667 0.833358 0.438312 T T T 
0.833333 0.583358 0.438312 T T T 
0.666667 0.666666 0.034822 F F F 
0.833333 0.916666 0.034822 F F F 
0.666667 0.833333 0.173518 F F F 
0.833333 0.583333 0.173518 F F F 
0.614881 0.501693 0.552284 T T T 
0.000000 0.000000 0.000000 F F F 
0.166667 0.250000 0.000000 F F F 
0.000000 0.000000 0.416549 F F F 
0.166667 0.250000 0.416549 F F F 
0.000000 0.166666 0.138949 F F F 
0.166667 0.416666 0.138949 F F F 
0.000000 0.333333 0.277649 F F F 
0.166667 0.083333 0.277649 F F F 
0.333333 0.000000 0.000000 F F F 
0.500000 0.250000 0.000000 F F F 
0.333333 0.000000 0.416549 F F F 
0.500000 0.250000 0.416549 F F F 
0.333333 0.166666 0.138949 F F F 
0.500000 0.416666 0.138949 F F F 
0.333333 0.333334 0.277649 F F F 
0.500000 0.083333 0.277649 F F F 
0.666667 0.000000 0.000000 F F F 
0.833333 0.250000 0.000000 F F F 
0.666667 0.000000 0.416549 F F F 
0.833333 0.250000 0.416549 F F F 
0.666667 0.166666 0.138949 F F F 
0.833333 0.416666 0.138949 F F F 
0.666667 0.333333 0.277649 F F F 
0.833333 0.083333 0.277649 F F F 
0.000000 0.500000 0.000000 F F F 
0.166667 0.750000 0.000000 F F F 
0.000000 0.500000 0.416549 F F F 
0.166667 0.750000 0.416549 F F F 
0.000000 0.666666 0.138949 F F F 
0.166667 0.916666 0.138949 F F F 
0.000000 0.833333 0.277649 F F F 
0.166667 0.583333 0.277649 F F F 
0.333333 0.500000 0.000000 F F F 
0.500000 0.750000 0.000000 F F F 
0.333333 0.500000 0.416549 F F F 
0.500000 0.750000 0.416549 F F F 
0.333333 0.666666 0.138949 F F F 
0.500000 0.916666 0.138949 F F F 
0.333333 0.833333 0.277649 F F F 
0.500000 0.583333 0.277649 F F F 
0.666667 0.500000 0.000000 F F F 
0.833333 0.750000 0.000000 F F F 
0.666667 0.500000 0.416549 F F F 
0.833333 0.750000 0.416549 F F F 
0.666667 0.666666 0.138949 F F F 
0.833333 0.916666 0.138949 F F F 
0.666667 0.833333 0.277649 F F F 
0.833333 0.583333 0.277649 F F F 
0.294160 0.585598 0.542004 T T T 
