K4 F4
1.0
        5.3088269234         0.0000000000         0.0000000000
        0.0000000000         5.3088269234         0.0000000000
        0.0000000000         0.0000000000         5.3088269234
    K    F
    4    4
Direct
     0.000000000         0.000000000         0.000000000
     0.000000000         0.500000000         0.500000000
     0.500000000         0.000000000         0.500000000
     0.500000000         0.500000000         0.000000000
     0.000000000         0.000000000         0.500000000
     0.500000000         0.000000000         0.000000000
     0.000000000         0.500000000         0.000000000
     0.500000000         0.500000000         0.500000000
