POSCAR                                  
   1.00000000000000     
     9.2842620000000000    0.0000000000000000    0.0000000000000000
     0.0000000000000000   10.7205420000000000    0.0000000000000000
     0.0000000000000000    0.0000000000000000   18.2272420000000004
   C    F    Si   K 
    48     1    48     1
Selective dynamics
Direct
  0.0000000000000000  0.0000000000000000  0.3121300000000033   F   F   F
  0.1666669999999968  0.2500000000000000  0.3121300000000033   F   F   F
 -0.0003172074035371  0.3331958660663596  0.4383498389824765   T   T   T
  0.1665659759976968  0.0835194545649723  0.4388659756932137   T   T   T
  0.0000000000000000  0.1666659999999993  0.0348219999999984   F   F   F
  0.1666669999999968  0.4166659999999993  0.0348219999999984   F   F   F
  0.0000000000000000  0.3333330000000032  0.1735180000000014   F   F   F
  0.1666669999999968  0.0833330000000032  0.1735180000000014   F   F   F
  0.3333330000000032  0.0000000000000000  0.3121300000000033   F   F   F
  0.5000000000000000  0.2500000000000000  0.3121300000000033   F   F   F
  0.3333867828890740  0.3336605367542031  0.4397422276232919   T   T   T
  0.5001100988664202  0.0834147790793652  0.4380696214061424   T   T   T
  0.3333330000000032  0.1666659999999993  0.0348219999999984   F   F   F
  0.5000000000000000  0.4166659999999993  0.0348219999999984   F   F   F
  0.3333330000000032  0.3333340000000007  0.1735180000000014   F   F   F
  0.5000000000000000  0.0833330000000032  0.1735180000000014   F   F   F
  0.6666669999999968  0.0000000000000000  0.3121300000000033   F   F   F
  0.8333330000000032  0.2500000000000000  0.3121300000000033   F   F   F
  0.6663756783554662  0.3337659162450962  0.4393549181931212   T   T   T
  0.8330149408490486  0.0831925106478250  0.4379684500663487   T   T   T
  0.6666669999999968  0.1666659999999993  0.0348219999999984   F   F   F
  0.8333330000000032  0.4166659999999993  0.0348219999999984   F   F   F
  0.6666669999999968  0.3333330000000032  0.1735180000000014   F   F   F
  0.8333330000000032  0.0833330000000032  0.1735180000000014   F   F   F
  0.0000000000000000  0.5000000000000000  0.3121300000000033   F   F   F
  0.1666669999999968  0.7500000000000000  0.3121300000000033   F   F   F
 -0.0000488097141113  0.8333325497069475  0.4391941400390210   T   T   T
  0.1667021763255095  0.5832806296379331  0.4421100658162623   T   T   T
  0.0000000000000000  0.6666659999999993  0.0348219999999984   F   F   F
  0.1666669999999968  0.9166659999999993  0.0348219999999984   F   F   F
  0.0000000000000000  0.8333330000000032  0.1735180000000014   F   F   F
  0.1666669999999968  0.5833330000000032  0.1735180000000014   F   F   F
  0.3333330000000032  0.5000000000000000  0.3121300000000033   F   F   F
  0.5000000000000000  0.7500000000000000  0.3121300000000033   F   F   F
  0.3332707880348043  0.8329818040539744  0.4422791947431096   T   T   T
  0.4995889201065917  0.5829325051188063  0.4492481629130205   T   T   T
  0.3333330000000032  0.6666659999999993  0.0348219999999984   F   F   F
  0.5000000000000000  0.9166659999999993  0.0348219999999984   F   F   F
  0.3333330000000032  0.8333330000000032  0.1735180000000014   F   F   F
  0.5000000000000000  0.5833330000000032  0.1735180000000014   F   F   F
  0.6666669999999968  0.5000000000000000  0.3121300000000033   F   F   F
  0.8333330000000032  0.7500000000000000  0.3121300000000033   F   F   F
  0.6663649654174495  0.8331511040699481  0.4390836631934672   T   T   T
  0.8325585153360955  0.5836686256569389  0.4397958881929602   T   T   T
  0.6666669999999968  0.6666659999999993  0.0348219999999984   F   F   F
  0.8333330000000032  0.9166659999999993  0.0348219999999984   F   F   F
  0.6666669999999968  0.8333330000000032  0.1735180000000014   F   F   F
  0.8333330000000032  0.5833330000000032  0.1735180000000014   F   F   F
  0.4987031082333970  0.5803418583449953  0.5307766852991778   T   T   T
  0.0000000000000000  0.0000000000000000  0.0000000000000000   F   F   F
  0.1666669999999968  0.2500000000000000  0.0000000000000000   F   F   F
  0.0000000000000000  0.0000000000000000  0.4165490000000034   F   F   F
  0.1666669999999968  0.2500000000000000  0.4165490000000034   F   F   F
  0.0000000000000000  0.1666659999999993  0.1389489999999967   F   F   F
  0.1666669999999968  0.4166659999999993  0.1389489999999967   F   F   F
  0.0000000000000000  0.3333330000000032  0.2776489999999967   F   F   F
  0.1666669999999968  0.0833330000000032  0.2776489999999967   F   F   F
  0.3333330000000032  0.0000000000000000  0.0000000000000000   F   F   F
  0.5000000000000000  0.2500000000000000  0.0000000000000000   F   F   F
  0.3333330000000032  0.0000000000000000  0.4165490000000034   F   F   F
  0.5000000000000000  0.2500000000000000  0.4165490000000034   F   F   F
  0.3333330000000032  0.1666659999999993  0.1389489999999967   F   F   F
  0.5000000000000000  0.4166659999999993  0.1389489999999967   F   F   F
  0.3333330000000032  0.3333340000000007  0.2776489999999967   F   F   F
  0.5000000000000000  0.0833330000000032  0.2776489999999967   F   F   F
  0.6666669999999968  0.0000000000000000  0.0000000000000000   F   F   F
  0.8333330000000032  0.2500000000000000  0.0000000000000000   F   F   F
  0.6666669999999968  0.0000000000000000  0.4165490000000034   F   F   F
  0.8333330000000032  0.2500000000000000  0.4165490000000034   F   F   F
  0.6666669999999968  0.1666659999999993  0.1389489999999967   F   F   F
  0.8333330000000032  0.4166659999999993  0.1389489999999967   F   F   F
  0.6666669999999968  0.3333330000000032  0.2776489999999967   F   F   F
  0.8333330000000032  0.0833330000000032  0.2776489999999967   F   F   F
  0.0000000000000000  0.5000000000000000  0.0000000000000000   F   F   F
  0.1666669999999968  0.7500000000000000  0.0000000000000000   F   F   F
  0.0000000000000000  0.5000000000000000  0.4165490000000034   F   F   F
  0.1666669999999968  0.7500000000000000  0.4165490000000034   F   F   F
  0.0000000000000000  0.6666659999999993  0.1389489999999967   F   F   F
  0.1666669999999968  0.9166659999999993  0.1389489999999967   F   F   F
  0.0000000000000000  0.8333330000000032  0.2776489999999967   F   F   F
  0.1666669999999968  0.5833330000000032  0.2776489999999967   F   F   F
  0.3333330000000032  0.5000000000000000  0.0000000000000000   F   F   F
  0.5000000000000000  0.7500000000000000  0.0000000000000000   F   F   F
  0.3333330000000032  0.5000000000000000  0.4165490000000034   F   F   F
  0.5000000000000000  0.7500000000000000  0.4165490000000034   F   F   F
  0.3333330000000032  0.6666659999999993  0.1389489999999967   F   F   F
  0.5000000000000000  0.9166659999999993  0.1389489999999967   F   F   F
  0.3333330000000032  0.8333330000000032  0.2776489999999967   F   F   F
  0.5000000000000000  0.5833330000000032  0.2776489999999967   F   F   F
  0.6666669999999968  0.5000000000000000  0.0000000000000000   F   F   F
  0.8333330000000032  0.7500000000000000  0.0000000000000000   F   F   F
  0.6666669999999968  0.5000000000000000  0.4165490000000034   F   F   F
  0.8333330000000032  0.7500000000000000  0.4165490000000034   F   F   F
  0.6666669999999968  0.6666659999999993  0.1389489999999967   F   F   F
  0.8333330000000032  0.9166659999999993  0.1389489999999967   F   F   F
  0.6666669999999968  0.8333330000000032  0.2776489999999967   F   F   F
  0.8333330000000032  0.5833330000000032  0.2776489999999967   F   F   F
  0.2429082887305080  0.6396786023370463  0.5870823162821660   T   T   T
 
  0.00000000E+00  0.00000000E+00  0.00000000E+00
  0.00000000E+00  0.00000000E+00  0.00000000E+00
  0.00000000E+00  0.00000000E+00  0.00000000E+00
  0.00000000E+00  0.00000000E+00  0.00000000E+00
  0.00000000E+00  0.00000000E+00  0.00000000E+00
  0.00000000E+00  0.00000000E+00  0.00000000E+00
  0.00000000E+00  0.00000000E+00  0.00000000E+00
  0.00000000E+00  0.00000000E+00  0.00000000E+00
  0.00000000E+00  0.00000000E+00  0.00000000E+00
  0.00000000E+00  0.00000000E+00  0.00000000E+00
  0.00000000E+00  0.00000000E+00  0.00000000E+00
  0.00000000E+00  0.00000000E+00  0.00000000E+00
  0.00000000E+00  0.00000000E+00  0.00000000E+00
  0.00000000E+00  0.00000000E+00  0.00000000E+00
  0.00000000E+00  0.00000000E+00  0.00000000E+00
  0.00000000E+00  0.00000000E+00  0.00000000E+00
  0.00000000E+00  0.00000000E+00  0.00000000E+00
  0.00000000E+00  0.00000000E+00  0.00000000E+00
  0.00000000E+00  0.00000000E+00  0.00000000E+00
  0.00000000E+00  0.00000000E+00  0.00000000E+00
  0.00000000E+00  0.00000000E+00  0.00000000E+00
  0.00000000E+00  0.00000000E+00  0.00000000E+00
  0.00000000E+00  0.00000000E+00  0.00000000E+00
  0.00000000E+00  0.00000000E+00  0.00000000E+00
  0.00000000E+00  0.00000000E+00  0.00000000E+00
  0.00000000E+00  0.00000000E+00  0.00000000E+00
  0.00000000E+00  0.00000000E+00  0.00000000E+00
  0.00000000E+00  0.00000000E+00  0.00000000E+00
  0.00000000E+00  0.00000000E+00  0.00000000E+00
  0.00000000E+00  0.00000000E+00  0.00000000E+00
  0.00000000E+00  0.00000000E+00  0.00000000E+00
  0.00000000E+00  0.00000000E+00  0.00000000E+00
  0.00000000E+00  0.00000000E+00  0.00000000E+00
  0.00000000E+00  0.00000000E+00  0.00000000E+00
  0.00000000E+00  0.00000000E+00  0.00000000E+00
  0.00000000E+00  0.00000000E+00  0.00000000E+00
  0.00000000E+00  0.00000000E+00  0.00000000E+00
  0.00000000E+00  0.00000000E+00  0.00000000E+00
  0.00000000E+00  0.00000000E+00  0.00000000E+00
  0.00000000E+00  0.00000000E+00  0.00000000E+00
  0.00000000E+00  0.00000000E+00  0.00000000E+00
  0.00000000E+00  0.00000000E+00  0.00000000E+00
  0.00000000E+00  0.00000000E+00  0.00000000E+00
  0.00000000E+00  0.00000000E+00  0.00000000E+00
  0.00000000E+00  0.00000000E+00  0.00000000E+00
  0.00000000E+00  0.00000000E+00  0.00000000E+00
  0.00000000E+00  0.00000000E+00  0.00000000E+00
  0.00000000E+00  0.00000000E+00  0.00000000E+00
  0.00000000E+00  0.00000000E+00  0.00000000E+00
  0.00000000E+00  0.00000000E+00  0.00000000E+00
  0.00000000E+00  0.00000000E+00  0.00000000E+00
  0.00000000E+00  0.00000000E+00  0.00000000E+00
  0.00000000E+00  0.00000000E+00  0.00000000E+00
  0.00000000E+00  0.00000000E+00  0.00000000E+00
  0.00000000E+00  0.00000000E+00  0.00000000E+00
  0.00000000E+00  0.00000000E+00  0.00000000E+00
  0.00000000E+00  0.00000000E+00  0.00000000E+00
  0.00000000E+00  0.00000000E+00  0.00000000E+00
  0.00000000E+00  0.00000000E+00  0.00000000E+00
  0.00000000E+00  0.00000000E+00  0.00000000E+00
  0.00000000E+00  0.00000000E+00  0.00000000E+00
  0.00000000E+00  0.00000000E+00  0.00000000E+00
  0.00000000E+00  0.00000000E+00  0.00000000E+00
  0.00000000E+00  0.00000000E+00  0.00000000E+00
  0.00000000E+00  0.00000000E+00  0.00000000E+00
  0.00000000E+00  0.00000000E+00  0.00000000E+00
  0.00000000E+00  0.00000000E+00  0.00000000E+00
  0.00000000E+00  0.00000000E+00  0.00000000E+00
  0.00000000E+00  0.00000000E+00  0.00000000E+00
  0.00000000E+00  0.00000000E+00  0.00000000E+00
  0.00000000E+00  0.00000000E+00  0.00000000E+00
  0.00000000E+00  0.00000000E+00  0.00000000E+00
  0.00000000E+00  0.00000000E+00  0.00000000E+00
  0.00000000E+00  0.00000000E+00  0.00000000E+00
  0.00000000E+00  0.00000000E+00  0.00000000E+00
  0.00000000E+00  0.00000000E+00  0.00000000E+00
  0.00000000E+00  0.00000000E+00  0.00000000E+00
  0.00000000E+00  0.00000000E+00  0.00000000E+00
  0.00000000E+00  0.00000000E+00  0.00000000E+00
  0.00000000E+00  0.00000000E+00  0.00000000E+00
  0.00000000E+00  0.00000000E+00  0.00000000E+00
  0.00000000E+00  0.00000000E+00  0.00000000E+00
  0.00000000E+00  0.00000000E+00  0.00000000E+00
  0.00000000E+00  0.00000000E+00  0.00000000E+00
  0.00000000E+00  0.00000000E+00  0.00000000E+00
  0.00000000E+00  0.00000000E+00  0.00000000E+00
  0.00000000E+00  0.00000000E+00  0.00000000E+00
  0.00000000E+00  0.00000000E+00  0.00000000E+00
  0.00000000E+00  0.00000000E+00  0.00000000E+00
  0.00000000E+00  0.00000000E+00  0.00000000E+00
  0.00000000E+00  0.00000000E+00  0.00000000E+00
  0.00000000E+00  0.00000000E+00  0.00000000E+00
  0.00000000E+00  0.00000000E+00  0.00000000E+00
  0.00000000E+00  0.00000000E+00  0.00000000E+00
  0.00000000E+00  0.00000000E+00  0.00000000E+00
  0.00000000E+00  0.00000000E+00  0.00000000E+00
  0.00000000E+00  0.00000000E+00  0.00000000E+00
  0.00000000E+00  0.00000000E+00  0.00000000E+00
