POSCAR                                  
   1.00000000000000     
     9.2842620000000000    0.0000000000000000    0.0000000000000000
     0.0000000000000000   10.7205420000000000    0.0000000000000000
     0.0000000000000000    0.0000000000000000   18.2272420000000004
   C    F    Si   K 
    48     1    48     1
Selective dynamics
Direct
  0.0000000000000000  0.0000000000000000  0.3121300000000033   F   F   F
  0.1666669999999968  0.2500000000000000  0.3121300000000033   F   F   F
  0.9999267349551967  0.3332329849871659  0.4388483890159975   T   T   T
  0.1666503454810894  0.0832597453461912  0.4384866506736508   T   T   T
  0.0000000000000000  0.1666659999999993  0.0348219999999984   F   F   F
  0.1666669999999968  0.4166659999999993  0.0348219999999984   F   F   F
  0.0000000000000000  0.3333330000000032  0.1735180000000014   F   F   F
  0.1666669999999968  0.0833330000000032  0.1735180000000014   F   F   F
  0.3333330000000032  0.0000000000000000  0.3121300000000033   F   F   F
  0.5000000000000000  0.2500000000000000  0.3121300000000033   F   F   F
  0.3336243950599460  0.3337079705696772  0.4405182474864748   T   T   T
  0.5000876247889736  0.0833472394133376  0.4382312894366711   T   T   T
  0.3333330000000032  0.1666659999999993  0.0348219999999984   F   F   F
  0.5000000000000000  0.4166659999999993  0.0348219999999984   F   F   F
  0.3333330000000032  0.3333340000000007  0.1735180000000014   F   F   F
  0.5000000000000000  0.0833330000000032  0.1735180000000014   F   F   F
  0.6666669999999968  0.0000000000000000  0.3121300000000033   F   F   F
  0.8333330000000032  0.2500000000000000  0.3121300000000033   F   F   F
  0.6664861592321092  0.3336101870683131  0.4388470669060454   T   T   T
  0.8332640450296390  0.0832946766590025  0.4386345538036464   T   T   T
  0.6666669999999968  0.1666659999999993  0.0348219999999984   F   F   F
  0.8333330000000032  0.4166659999999993  0.0348219999999984   F   F   F
  0.6666669999999968  0.3333330000000032  0.1735180000000014   F   F   F
  0.8333330000000032  0.0833330000000032  0.1735180000000014   F   F   F
  0.0000000000000000  0.5000000000000000  0.3121300000000033   F   F   F
  0.1666669999999968  0.7500000000000000  0.3121300000000033   F   F   F
  0.9999224465875002  0.8334372712894964  0.4385560763503998   T   T   T
  0.1670993360972877  0.5834188678782244  0.4435270600023826   T   T   T
  0.0000000000000000  0.6666659999999993  0.0348219999999984   F   F   F
  0.1666669999999968  0.9166659999999993  0.0348219999999984   F   F   F
  0.0000000000000000  0.8333330000000032  0.1735180000000014   F   F   F
  0.1666669999999968  0.5833330000000032  0.1735180000000014   F   F   F
  0.3333330000000032  0.5000000000000000  0.3121300000000033   F   F   F
  0.5000000000000000  0.7500000000000000  0.3121300000000033   F   F   F
  0.3335855905138026  0.8330047994304388  0.4401231229265375   T   T   T
  0.5000865623069243  0.5833214042738522  0.4488751627460652   T   T   T
  0.3333330000000032  0.6666659999999993  0.0348219999999984   F   F   F
  0.5000000000000000  0.9166659999999993  0.0348219999999984   F   F   F
  0.3333330000000032  0.8333330000000032  0.1735180000000014   F   F   F
  0.5000000000000000  0.5833330000000032  0.1735180000000014   F   F   F
  0.6666669999999968  0.5000000000000000  0.3121300000000033   F   F   F
  0.8333330000000032  0.7500000000000000  0.3121300000000033   F   F   F
  0.6664832137176770  0.8330259751224330  0.4389167353267434   T   T   T
  0.8328924355565673  0.5833663400120787  0.4391846085675020   T   T   T
  0.6666669999999968  0.6666659999999993  0.0348219999999984   F   F   F
  0.8333330000000032  0.9166659999999993  0.0348219999999984   F   F   F
  0.6666669999999968  0.8333330000000032  0.1735180000000014   F   F   F
  0.8333330000000032  0.5833330000000032  0.1735180000000014   F   F   F
  0.4977617916782873  0.5835550934537846  0.5306489627109331   T   T   T
  0.0000000000000000  0.0000000000000000  0.0000000000000000   F   F   F
  0.1666669999999968  0.2500000000000000  0.0000000000000000   F   F   F
  0.0000000000000000  0.0000000000000000  0.4165490000000034   F   F   F
  0.1666669999999968  0.2500000000000000  0.4165490000000034   F   F   F
  0.0000000000000000  0.1666659999999993  0.1389489999999967   F   F   F
  0.1666669999999968  0.4166659999999993  0.1389489999999967   F   F   F
  0.0000000000000000  0.3333330000000032  0.2776489999999967   F   F   F
  0.1666669999999968  0.0833330000000032  0.2776489999999967   F   F   F
  0.3333330000000032  0.0000000000000000  0.0000000000000000   F   F   F
  0.5000000000000000  0.2500000000000000  0.0000000000000000   F   F   F
  0.3333330000000032  0.0000000000000000  0.4165490000000034   F   F   F
  0.5000000000000000  0.2500000000000000  0.4165490000000034   F   F   F
  0.3333330000000032  0.1666659999999993  0.1389489999999967   F   F   F
  0.5000000000000000  0.4166659999999993  0.1389489999999967   F   F   F
  0.3333330000000032  0.3333340000000007  0.2776489999999967   F   F   F
  0.5000000000000000  0.0833330000000032  0.2776489999999967   F   F   F
  0.6666669999999968  0.0000000000000000  0.0000000000000000   F   F   F
  0.8333330000000032  0.2500000000000000  0.0000000000000000   F   F   F
  0.6666669999999968  0.0000000000000000  0.4165490000000034   F   F   F
  0.8333330000000032  0.2500000000000000  0.4165490000000034   F   F   F
  0.6666669999999968  0.1666659999999993  0.1389489999999967   F   F   F
  0.8333330000000032  0.4166659999999993  0.1389489999999967   F   F   F
  0.6666669999999968  0.3333330000000032  0.2776489999999967   F   F   F
  0.8333330000000032  0.0833330000000032  0.2776489999999967   F   F   F
  0.0000000000000000  0.5000000000000000  0.0000000000000000   F   F   F
  0.1666669999999968  0.7500000000000000  0.0000000000000000   F   F   F
  0.0000000000000000  0.5000000000000000  0.4165490000000034   F   F   F
  0.1666669999999968  0.7500000000000000  0.4165490000000034   F   F   F
  0.0000000000000000  0.6666659999999993  0.1389489999999967   F   F   F
  0.1666669999999968  0.9166659999999993  0.1389489999999967   F   F   F
  0.0000000000000000  0.8333330000000032  0.2776489999999967   F   F   F
  0.1666669999999968  0.5833330000000032  0.2776489999999967   F   F   F
  0.3333330000000032  0.5000000000000000  0.0000000000000000   F   F   F
  0.5000000000000000  0.7500000000000000  0.0000000000000000   F   F   F
  0.3333330000000032  0.5000000000000000  0.4165490000000034   F   F   F
  0.5000000000000000  0.7500000000000000  0.4165490000000034   F   F   F
  0.3333330000000032  0.6666659999999993  0.1389489999999967   F   F   F
  0.5000000000000000  0.9166659999999993  0.1389489999999967   F   F   F
  0.3333330000000032  0.8333330000000032  0.2776489999999967   F   F   F
  0.5000000000000000  0.5833330000000032  0.2776489999999967   F   F   F
  0.6666669999999968  0.5000000000000000  0.0000000000000000   F   F   F
  0.8333330000000032  0.7500000000000000  0.0000000000000000   F   F   F
  0.6666669999999968  0.5000000000000000  0.4165490000000034   F   F   F
  0.8333330000000032  0.7500000000000000  0.4165490000000034   F   F   F
  0.6666669999999968  0.6666659999999993  0.1389489999999967   F   F   F
  0.8333330000000032  0.9166659999999993  0.1389489999999967   F   F   F
  0.6666669999999968  0.8333330000000032  0.2776489999999967   F   F   F
  0.8333330000000032  0.5833330000000032  0.2776489999999967   F   F   F
  0.2406978893323116  0.5764121732125754  0.5920099548150176   T   T   T
 
  0.00000000E+00  0.00000000E+00  0.00000000E+00
  0.00000000E+00  0.00000000E+00  0.00000000E+00
  0.00000000E+00  0.00000000E+00  0.00000000E+00
  0.00000000E+00  0.00000000E+00  0.00000000E+00
  0.00000000E+00  0.00000000E+00  0.00000000E+00
  0.00000000E+00  0.00000000E+00  0.00000000E+00
  0.00000000E+00  0.00000000E+00  0.00000000E+00
  0.00000000E+00  0.00000000E+00  0.00000000E+00
  0.00000000E+00  0.00000000E+00  0.00000000E+00
  0.00000000E+00  0.00000000E+00  0.00000000E+00
  0.00000000E+00  0.00000000E+00  0.00000000E+00
  0.00000000E+00  0.00000000E+00  0.00000000E+00
  0.00000000E+00  0.00000000E+00  0.00000000E+00
  0.00000000E+00  0.00000000E+00  0.00000000E+00
  0.00000000E+00  0.00000000E+00  0.00000000E+00
  0.00000000E+00  0.00000000E+00  0.00000000E+00
  0.00000000E+00  0.00000000E+00  0.00000000E+00
  0.00000000E+00  0.00000000E+00  0.00000000E+00
  0.00000000E+00  0.00000000E+00  0.00000000E+00
  0.00000000E+00  0.00000000E+00  0.00000000E+00
  0.00000000E+00  0.00000000E+00  0.00000000E+00
  0.00000000E+00  0.00000000E+00  0.00000000E+00
  0.00000000E+00  0.00000000E+00  0.00000000E+00
  0.00000000E+00  0.00000000E+00  0.00000000E+00
  0.00000000E+00  0.00000000E+00  0.00000000E+00
  0.00000000E+00  0.00000000E+00  0.00000000E+00
  0.00000000E+00  0.00000000E+00  0.00000000E+00
  0.00000000E+00  0.00000000E+00  0.00000000E+00
  0.00000000E+00  0.00000000E+00  0.00000000E+00
  0.00000000E+00  0.00000000E+00  0.00000000E+00
  0.00000000E+00  0.00000000E+00  0.00000000E+00
  0.00000000E+00  0.00000000E+00  0.00000000E+00
  0.00000000E+00  0.00000000E+00  0.00000000E+00
  0.00000000E+00  0.00000000E+00  0.00000000E+00
  0.00000000E+00  0.00000000E+00  0.00000000E+00
  0.00000000E+00  0.00000000E+00  0.00000000E+00
  0.00000000E+00  0.00000000E+00  0.00000000E+00
  0.00000000E+00  0.00000000E+00  0.00000000E+00
  0.00000000E+00  0.00000000E+00  0.00000000E+00
  0.00000000E+00  0.00000000E+00  0.00000000E+00
  0.00000000E+00  0.00000000E+00  0.00000000E+00
  0.00000000E+00  0.00000000E+00  0.00000000E+00
  0.00000000E+00  0.00000000E+00  0.00000000E+00
  0.00000000E+00  0.00000000E+00  0.00000000E+00
  0.00000000E+00  0.00000000E+00  0.00000000E+00
  0.00000000E+00  0.00000000E+00  0.00000000E+00
  0.00000000E+00  0.00000000E+00  0.00000000E+00
  0.00000000E+00  0.00000000E+00  0.00000000E+00
  0.00000000E+00  0.00000000E+00  0.00000000E+00
  0.00000000E+00  0.00000000E+00  0.00000000E+00
  0.00000000E+00  0.00000000E+00  0.00000000E+00
  0.00000000E+00  0.00000000E+00  0.00000000E+00
  0.00000000E+00  0.00000000E+00  0.00000000E+00
  0.00000000E+00  0.00000000E+00  0.00000000E+00
  0.00000000E+00  0.00000000E+00  0.00000000E+00
  0.00000000E+00  0.00000000E+00  0.00000000E+00
  0.00000000E+00  0.00000000E+00  0.00000000E+00
  0.00000000E+00  0.00000000E+00  0.00000000E+00
  0.00000000E+00  0.00000000E+00  0.00000000E+00
  0.00000000E+00  0.00000000E+00  0.00000000E+00
  0.00000000E+00  0.00000000E+00  0.00000000E+00
  0.00000000E+00  0.00000000E+00  0.00000000E+00
  0.00000000E+00  0.00000000E+00  0.00000000E+00
  0.00000000E+00  0.00000000E+00  0.00000000E+00
  0.00000000E+00  0.00000000E+00  0.00000000E+00
  0.00000000E+00  0.00000000E+00  0.00000000E+00
  0.00000000E+00  0.00000000E+00  0.00000000E+00
  0.00000000E+00  0.00000000E+00  0.00000000E+00
  0.00000000E+00  0.00000000E+00  0.00000000E+00
  0.00000000E+00  0.00000000E+00  0.00000000E+00
  0.00000000E+00  0.00000000E+00  0.00000000E+00
  0.00000000E+00  0.00000000E+00  0.00000000E+00
  0.00000000E+00  0.00000000E+00  0.00000000E+00
  0.00000000E+00  0.00000000E+00  0.00000000E+00
  0.00000000E+00  0.00000000E+00  0.00000000E+00
  0.00000000E+00  0.00000000E+00  0.00000000E+00
  0.00000000E+00  0.00000000E+00  0.00000000E+00
  0.00000000E+00  0.00000000E+00  0.00000000E+00
  0.00000000E+00  0.00000000E+00  0.00000000E+00
  0.00000000E+00  0.00000000E+00  0.00000000E+00
  0.00000000E+00  0.00000000E+00  0.00000000E+00
  0.00000000E+00  0.00000000E+00  0.00000000E+00
  0.00000000E+00  0.00000000E+00  0.00000000E+00
  0.00000000E+00  0.00000000E+00  0.00000000E+00
  0.00000000E+00  0.00000000E+00  0.00000000E+00
  0.00000000E+00  0.00000000E+00  0.00000000E+00
  0.00000000E+00  0.00000000E+00  0.00000000E+00
  0.00000000E+00  0.00000000E+00  0.00000000E+00
  0.00000000E+00  0.00000000E+00  0.00000000E+00
  0.00000000E+00  0.00000000E+00  0.00000000E+00
  0.00000000E+00  0.00000000E+00  0.00000000E+00
  0.00000000E+00  0.00000000E+00  0.00000000E+00
  0.00000000E+00  0.00000000E+00  0.00000000E+00
  0.00000000E+00  0.00000000E+00  0.00000000E+00
  0.00000000E+00  0.00000000E+00  0.00000000E+00
  0.00000000E+00  0.00000000E+00  0.00000000E+00
  0.00000000E+00  0.00000000E+00  0.00000000E+00
  0.00000000E+00  0.00000000E+00  0.00000000E+00
